data_I
_audit_creation_method     SHELXL97
_chemical_name_systematic
;
2-(2-Hydroxyphenyl)-1,3-benzoxazole
;
_chemical_name_common     ?
_chemical_formula_moiety     'C13 H9 N O2'
_chemical_formula_sum     'C13 H9 N O2'
_chemical_formula_iupac     'C13 H9 N O2'
_chemical_formula_weight     211.21
_chemical_melting_point     ?
_symmetry_cell_setting     orthorhombic
_symmetry_space_group_name_H-M     'P n a 21'
_symmetry_space_group_name_Hall     'P 2c -2n'
loop_
    _symmetry_equiv_pos_as_xyz
    'x, y, z'
	'-x,-y,z'
	'x,-y,z'
	'-x,y,z'
	'-y, x, z'
	'y,-x,z'
	'-y,x,z'
	'y,x,z'
	
_cell_length_a     2.5
_cell_length_b     2.5
_cell_length_c     2.5
_cell_angle_alpha    90
_cell_angle_beta     90
_cell_angle_gamma    90
_cell_volume     15.625
_cell_formula_units_Z     4
_cell_measurement_reflns_used     1095
_cell_measurement_theta_min     2.5
_cell_measurement_theta_max     23.7
_cell_measurement_temperature     293(2)
_exptl_crystal_description     block
_exptl_crystal_colour     colourless
_exptl_crystal_size_max     0.40
_exptl_crystal_size_mid     0.23
_exptl_crystal_size_min     0.18
_exptl_crystal_density_diffrn     1.404
_exptl_crystal_density_meas     ?
_exptl_crystal_density_method     'not measured'
_exptl_crystal_F_000     440
_exptl_absorpt_coefficient_mu     0.096
_exptl_absorpt_correction_type     multi-scan
_exptl_absorpt_process_details     '(SADABS; Sheldrick, 1996)'
_exptl_absorpt_correction_T_min     0.963
_exptl_absorpt_correction_T_max     0.983
_exptl_special_details
;
;
_diffrn_ambient_temperature     293(2)
_diffrn_radiation_type     MoK\a
_diffrn_radiation_wavelength     0.71073
_diffrn_radiation_source     'fine-focus sealed tube'
_diffrn_radiation_monochromator     graphite
_diffrn_measurement_device_type     'Bruker APEX CCD area-detector'
_diffrn_measurement_method     '\f and \w'
_diffrn_detector_area_resol_mean     ?
_diffrn_reflns_number     5770
_diffrn_reflns_av_R_equivalents     0.024
_diffrn_reflns_av_sigmaI/netI     0.022
_diffrn_reflns_theta_min     1.8
_diffrn_reflns_theta_max     28.2
_diffrn_reflns_theta_full     28.2
_diffrn_measured_fraction_theta_max     0.986
_diffrn_measured_fraction_theta_full     0.986
_diffrn_reflns_limit_h_min     -26
_diffrn_reflns_limit_h_max     29
_diffrn_reflns_limit_k_min     -5
_diffrn_reflns_limit_k_max     4
_diffrn_reflns_limit_l_min     -14
_diffrn_reflns_limit_l_max     15
_diffrn_standards_number     0
_diffrn_standards_interval_count     ?
_diffrn_standards_interval_time     0
_diffrn_standards_decay_%     0
_refine_special_details
;
Refinement of F^2^ against ALL reflections.  The weighted R-factor wR and
goodness of fit S are based on F^2^, conventional R-factors R are based
on F, with F set to zero for negative F^2^. The threshold expression of
F^2^ > 2sigma(F^2^) is used only for calculating R-factors(gt) etc. and is
not relevant to the choice of reflections for refinement.  R-factors based
on F^2^ are statistically about twice as large as those based on F, and R-
factors based on ALL data will be even larger.
;
_reflns_number_total     1272
_reflns_number_gt     935
_reflns_threshold_expression     I>2\s(I)
_refine_ls_structure_factor_coef     Fsqd
_refine_ls_matrix_type     full
_refine_ls_R_factor_all     0.079
_refine_ls_R_factor_gt     0.059
_refine_ls_wR_factor_gt     0.154
_refine_ls_wR_factor_ref     0.170
_refine_ls_goodness_of_fit_ref     1.08
_refine_ls_restrained_S_all     1.08
_refine_ls_number_reflns     1272
_refine_ls_number_parameters     136
_refine_ls_number_restraints     3
_refine_ls_hydrogen_treatment     constr
_refine_ls_weighting_scheme     calc
_refine_ls_weighting_details
      'calc w = 1/[\s^2^(Fo^2^)+(0.079P)^2^+0.2556P] where P = (Fo^2^+2Fc^2^)/3'
_atom_sites_solution_hydrogens     geom
_atom_sites_solution_primary     direct
_atom_sites_solution_secondary     difmap
_refine_ls_shift/su_max     0.001
_refine_ls_shift/su_mean     0.000
_refine_diff_density_max     0.23
_refine_diff_density_min     -0.24
_refine_ls_extinction_method     none
_refine_ls_extinction_coef     ?
_refine_ls_abs_structure_details     'Flack (1983), with 1079 Friedel pairs'
_refine_ls_abs_structure_Flack     ?
loop_
    _atom_type_symbol
    _atom_type_description
    _atom_type_scat_dispersion_real
    _atom_type_scat_dispersion_imag
    _atom_type_scat_source
    'Cu' 'Cu' 0.0033 0.0016
                         'International Tables Vol C Tables 4.2.6.8 and 6.1.1.4'
						 
_computing_data_collection     'SMART (Bruker, 2001)'
_computing_cell_refinement     'SAINT (Bruker, 2001)'
_computing_data_reduction     SAINT
_computing_structure_solution     'SHELXS97 (Sheldrick, 1997)'
_computing_structure_refinement     'SHELXL97 (Sheldrick, 1997)'
_computing_molecular_graphics     'SHELXTL (Sheldrick, 2000)'
_computing_publication_material     SHELXL97
loop_
    _atom_site_label
    _atom_site_fract_x
    _atom_site_fract_y
    _atom_site_fract_z
    _atom_site_U_iso_or_equiv
    _atom_site_adp_type
    _atom_site_calc_flag
    _atom_site_refinement_flags
    _atom_site_occupancy
    _atom_site_disorder_assembly
    _atom_site_disorder_group
    _atom_site_type_symbol
    Cu1 0.00 0.00 0.00 0.0 Uani d PD 1.0 A 1 Cu
loop_
    _atom_site_aniso_label
    _atom_site_aniso_U_11
    _atom_site_aniso_U_22
    _atom_site_aniso_U_33
    _atom_site_aniso_U_12
    _atom_site_aniso_U_13
    _atom_site_aniso_U_23
    Cu1 0.004(4) 0.004(9) 0.004(5) 0.00(5) 0.00(3) -0.00(5)
