
###########################################################################
#
#                 Cambridge Crystallographic Data Centre
#                                CCDC 
# 
###########################################################################
#
#  This CIF contains data generated directly from one or more entries in
#  the Cambridge Structural Database and will include bibliographic, 
#  chemical, crystal, experimental, refinement, and atomic coordinate data,
#  as available.
#     
#  Copyright  2012  The Cambridge Crystallographic Data Centre
# 
#  This CIF is provided on the understanding that it is used for bona fide 
#  research purposes only.  It may contain copyright material of the CCDC
#  or of third parties, and may not be copied or further disseminated in 
#  any form, whether machine-readable or not, except for the purpose of 
#  generating routine backup copies on your local computer system.
# 
#  For further information about the CCDC, data deposition and data 
#  retrieval see <www.ccdc.cam.ac.uk>. Bona fide researchers may freely 
#  download  Mercury and enCIFer from this site to visualise CIF-encoded 
#  structures and to carry out CIF format checking respectively.
#
###########################################################################

data_CSD_CIF_ZAKMIH01
_audit_creation_date 2003-11-28
_audit_creation_method CSD-ConQuest-V1
_database_code_CSD ZAKMIH01
_chemical_formula_sum 'C18 H18'
_chemical_formula_moiety
;
C18 H18
;
_journal_coden_Cambridge 119
_journal_volume 647
_journal_year 2003
_journal_page_first 233
_journal_name_full 'J.Mol.Struct. '
loop_
_publ_author_name
"H.Birkedal"
"H.-B.Burgi"
"K.Komatsu"
"D.Schwarzenbach"
_chemical_name_systematic
;
Heptacyclo(12.1.1.1^4,6^.1^9,11^.0^2,13^.0^3,7^.0^8,12^)octadeca-2,7,12-triene
;
_chemical_name_common
;
tris(Bicyclo(2.1.1)hexeno)benzene
;
_cell_volume    210.588
_exptl_crystal_density_diffrn 1.232
_exptl_special_details
;
hexagonal polymorph
The super-cell parameters are a=9.0317,8 and b=17.8858,15

;
_exptl_crystal_preparation 'benzene/acetonitrile'
_diffrn_ambient_temperature 293
_refine_special_details
;
The structure of the sub-cell is necessarily disordered with z=2/3.

;
#These two values have been output from a single CSD field.
_refine_ls_R_factor_gt 0.0308
_refine_ls_wR_factor_gt 0.0308
_symmetry_cell_setting hexagonal
_symmetry_space_group_name_H-M 'P 63/m m c'
_symmetry_Int_Tables_number 194
loop_
_symmetry_equiv_pos_site_id
_symmetry_equiv_pos_as_xyz
1 x,y,z
2 -y,x-y,z
3 -x+y,-x,z
4 x+1/3,y+2/3,z
5 -y+1/3,x-y+2/3,z
6 -x+y+1/3,-x+2/3,z
7 x+2/3,y+1/3,z
8 -y+2/3,x-y+1/3,z
9 -x+y+2/3,-x+1/3,z
10 -x+1/3,-y,-z+1/2
11 y,-x+y+1/3,-z+1/2
12 x-y-1/3,x-1/3,-z+1/2
13 -x+2/3,-y+2/3,-z+1/2
14 y+1/3,-x+y+1,-z+1/2
15 x-y,x+1/3,-z+1/2
16 -x+1,-y+1/3,-z+1/2
17 y+2/3,-x+y+2/3,-z+1/2
18 x-y+1/3,x,-z+1/2
19 -x+1/3,-y,-z+3/2
20 y,-x+y+1/3,-z+3/2
21 x-y-1/3,x-1/3,-z+3/2
22 -x+2/3,-y+2/3,-z+3/2
23 y+1/3,-x+y+1,-z+3/2
24 x-y,x+1/3,-z+3/2
25 -x+1,-y+1/3,-z+3/2
26 y+2/3,-x+y+2/3,-z+3/2
27 x-y+1/3,x,-z+3/2

_cell_length_a 10.2145(5)
_cell_length_b 10.2145(5)
_cell_length_c 6.9429(8)
_cell_angle_alpha 90
_cell_angle_beta 90
_cell_angle_gamma 120
loop_
_atom_site_label
_atom_site_type_symbol
_atom_site_fract_x
_atom_site_fract_y
_atom_site_fract_z
_atom_site_adp_type
_atom_site_occupancy
C1 C 0.08 0.0 0.0 Uani 0.33333
C2 C 0.23 0.0 0.0 Uani 0.33333
loop_ 
 _atom_site_aniso_label 
 _atom_site_aniso_U_11 
 _atom_site_aniso_U_22 
 _atom_site_aniso_U_33 
 _atom_site_aniso_U_23 
 _atom_site_aniso_U_13 
 _atom_site_aniso_U_12 
C1 0.0 0.0 0.0 0.0 0.0 0.0 
C2 0.0 0.0 0.0 0.0 0.0 0.0 
#END
