 
data_x 
 
_audit_creation_method            SHELXL-97 
_chemical_name_systematic 
; 
 ? 
; 
_chemical_name_common             ? 
_chemical_melting_point           ? 
_chemical_formula_moiety          ? 
_chemical_formula_sum 
 'C52 H44 N8 O8' 
_chemical_formula_weight          908.95 
 
loop_ 
 _atom_type_symbol 
 _atom_type_description 
 _atom_type_scat_dispersion_real 
 _atom_type_scat_dispersion_imag 
 _atom_type_scat_source 
 'C'  'C'   0.0033   0.0016 
 'International Tables Vol C Tables 4.2.6.8 and 6.1.1.4' 
 'H'  'H'   0.0000   0.0000 
 'International Tables Vol C Tables 4.2.6.8 and 6.1.1.4' 
 'N'  'N'   0.0061   0.0033 
 'International Tables Vol C Tables 4.2.6.8 and 6.1.1.4' 
 'O'  'O'   0.0106   0.0060 
 'International Tables Vol C Tables 4.2.6.8 and 6.1.1.4' 
 
_symmetry_cell_setting            ? 
_symmetry_space_group_name_H-M    ? 
 
loop_ 
 _symmetry_equiv_pos_as_xyz 
 'x, y, z' 
 'x+1/2, y, z+1/2' 
 '-x, -y, -z' 
 '-x+1/2, -y, -z+1/2' 
 
_cell_length_a                    25.0107(7) 
_cell_length_b                    24.7710(6) 
_cell_length_c                    14.4226(3) 
_cell_angle_alpha                 90.00 
_cell_angle_beta                  109.691(2) 
_cell_angle_gamma                 90.00 
_cell_volume                      8412.9(4) 
_cell_formula_units_Z             8 
_cell_measurement_temperature     100(2) 
_cell_measurement_reflns_used     ? 
_cell_measurement_theta_min       ? 
_cell_measurement_theta_max       ? 
 
_exptl_crystal_description        ? 
_exptl_crystal_colour             ? 
_exptl_crystal_size_max           ? 
_exptl_crystal_size_mid           ? 
_exptl_crystal_size_min           ? 
_exptl_crystal_density_meas       ? 
_exptl_crystal_density_diffrn     1.435 
_exptl_crystal_density_method     'not measured' 
_exptl_crystal_F_000              3808 
_exptl_absorpt_coefficient_mu     0.099 
_exptl_absorpt_correction_type    ? 
_exptl_absorpt_correction_T_min   ? 
_exptl_absorpt_correction_T_max   ? 
_exptl_absorpt_process_details    ? 
 
_exptl_special_details 
; 
 ? 
; 
 
_diffrn_ambient_temperature       100(2) 
_diffrn_radiation_wavelength      0.69800 
_diffrn_radiation_type            ? 
_diffrn_radiation_source          'fine-focus sealed tube' 
_diffrn_radiation_monochromator   graphite 
_diffrn_measurement_device_type   ? 
_diffrn_measurement_method        ? 
_diffrn_detector_area_resol_mean  ? 
_diffrn_standards_number          ? 
_diffrn_standards_interval_count  ? 
_diffrn_standards_interval_time   ? 
_diffrn_standards_decay_%         ? 
_diffrn_reflns_number             45431 
_diffrn_reflns_av_R_equivalents   0.1631 
_diffrn_reflns_av_sigmaI/netI     0.0866 
_diffrn_reflns_limit_h_min        -27 
_diffrn_reflns_limit_h_max        26 
_diffrn_reflns_limit_k_min        -27 
_diffrn_reflns_limit_k_max        26 
_diffrn_reflns_limit_l_min        -15 
_diffrn_reflns_limit_l_max        15 
_diffrn_reflns_theta_min          1.64 
_diffrn_reflns_theta_max          22.58 
_reflns_number_total              10621 
_reflns_number_gt                 9661 
_reflns_threshold_expression      >2sigma(I) 
 
_computing_data_collection        ? 
_computing_cell_refinement        ? 
_computing_data_reduction         ? 
_computing_structure_solution     'SHELXS-97 (Sheldrick, 1990)' 
_computing_structure_refinement   'SHELXL-97 (Sheldrick, 1997)' 
_computing_molecular_graphics     ? 
_computing_publication_material   ? 
 
_refine_special_details 
; 
 Refinement of F^2^ against ALL reflections.  The weighted R-factor wR and 
 goodness of fit S are based on F^2^, conventional R-factors R are based 
 on F, with F set to zero for negative F^2^. The threshold expression of 
 F^2^ > 2sigma(F^2^) is used only for calculating R-factors(gt) etc. and is 
 not relevant to the choice of reflections for refinement.  R-factors based 
 on F^2^ are statistically about twice as large as those based on F, and R- 
 factors based on ALL data will be even larger. 
; 
 
_refine_ls_structure_factor_coef  Fsqd  
_refine_ls_matrix_type            full 
_refine_ls_weighting_scheme       calc  
_refine_ls_weighting_details 
 'calc w=1/[\s^2^(Fo^2^)+(0.1437P)^2^+7.8760P] where P=(Fo^2^+2Fc^2^)/3' 
_atom_sites_solution_primary      direct 
_atom_sites_solution_secondary    difmap 
_atom_sites_solution_hydrogens    geom 
_refine_ls_hydrogen_treatment     mixed 
_refine_ls_extinction_method      none 
_refine_ls_extinction_coef        ? 
_refine_ls_number_reflns          10621 
_refine_ls_number_parameters      1642 
_refine_ls_number_restraints      2464 
_refine_ls_R_factor_all           0.0840 
_refine_ls_R_factor_gt            0.0808 
_refine_ls_wR_factor_ref          0.2296 
_refine_ls_wR_factor_gt           0.2248 
_refine_ls_goodness_of_fit_ref    1.087 
_refine_ls_restrained_S_all       0.981 
_refine_ls_shift/su_max           0.009 
_refine_ls_shift/su_mean          0.002 
 
loop_ 
 _atom_site_label 
 _atom_site_type_symbol 
 _atom_site_fract_x 
 _atom_site_fract_y 
 _atom_site_fract_z 
 _atom_site_U_iso_or_equiv 
 _atom_site_adp_type 
 _atom_site_occupancy 
 _atom_site_symmetry_multiplicity 
 _atom_site_calc_flag 
 _atom_site_refinement_flags 
 _atom_site_disorder_assembly 
 _atom_site_disorder_group 
O1 O 0.27799(7) 0.50850(6) 0.11594(14) 0.0238(4) Uani 0.9052(7) 1 d PD A 1 
O2 O 0.15604(7) 0.40759(6) 0.17072(14) 0.0284(4) Uani 0.9052(7) 1 d PD A 1 
O3 O 0.18546(9) 0.59596(6) 0.1140(2) 0.0291(7) Uani 0.9052(7) 1 d PD A 1 
O4 O 0.55114(7) 0.70283(6) 0.10709(14) 0.0300(5) Uani 0.9052(7) 1 d PD A 1 
N1 N 0.37596(9) 0.51571(7) 0.10123(16) 0.0215(5) Uani 0.9052(7) 1 d PD A 1 
H1 H 0.3444 0.5315 0.1008 0.026 Uiso 0.9052(7) 1 calc PR A 1 
N2 N 0.37837(9) 0.46290(7) 0.09902(16) 0.0216(5) Uani 0.9052(7) 1 d PD A 1 
N3 N 0.17958(8) 0.49402(6) 0.14182(16) 0.0238(5) Uani 0.9052(7) 1 d PD A 1 
H3 H 0.2065 0.5127 0.1300 0.029 Uiso 0.9052(7) 1 calc PR A 1 
N4 N 0.61450(7) 0.63414(8) 0.13991(16) 0.0268(5) Uani 0.9052(7) 1 d PD A 1 
H4A H 0.6430 0.6563 0.1455 0.032 Uiso 0.9052(7) 1 calc PR A 1 
H4B H 0.6207 0.5992 0.1480 0.032 Uiso 0.9052(7) 1 calc PR A 1 
C1 C 0.51893(9) 0.55874(8) 0.1048(2) 0.0278(6) Uani 0.9052(7) 1 d PD A 1 
H1A H 0.5533 0.5436 0.1024 0.033 Uiso 0.9052(7) 1 calc PR A 1 
C2 C 0.51448(8) 0.61457(8) 0.11322(19) 0.0227(6) Uani 0.9052(7) 1 d PD A 1 
C3 C 0.46355(9) 0.63574(9) 0.1154(2) 0.0313(7) Uani 0.9052(7) 1 d PD A 1 
H3A H 0.4596 0.6738 0.1187 0.038 Uiso 0.9052(7) 1 calc PR A 1 
C4 C 0.41827(10) 0.60292(8) 0.1128(2) 0.0323(7) Uani 0.9052(7) 1 d PD A 1 
H4 H 0.3843 0.6181 0.1168 0.039 Uiso 0.9052(7) 1 calc PR A 1 
C5 C 0.42324(9) 0.54753(8) 0.10431(18) 0.0213(6) Uani 0.9052(7) 1 d PD A 1 
C6 C 0.47355(9) 0.52507(8) 0.1001(2) 0.0277(6) Uani 0.9052(7) 1 d PD A 1 
H6 H 0.4768 0.4871 0.0941 0.033 Uiso 0.9052(7) 1 calc PR A 1 
C7 C 0.33450(9) 0.43375(8) 0.10663(19) 0.0201(6) Uani 0.9052(7) 1 d PD A 1 
C8 C 0.28450(9) 0.45782(8) 0.11982(19) 0.0217(6) Uani 0.9052(7) 1 d PD A 1 
C9 C 0.24287(9) 0.42085(8) 0.13751(19) 0.0234(6) Uani 0.9052(7) 1 d PD A 1 
C10 C 0.25207(9) 0.36696(8) 0.13920(19) 0.0242(6) Uani 0.9052(7) 1 d PD A 1 
H10 H 0.2247 0.3439 0.1511 0.029 Uiso 0.9052(7) 1 calc PR A 1 
C11 C 0.30038(9) 0.34230(8) 0.12425(19) 0.0225(6) Uani 0.9052(7) 1 d PD A 1 
C12 C 0.30714(10) 0.28570(8) 0.1264(2) 0.0291(7) Uani 0.9052(7) 1 d PD A 1 
H12 H 0.2794 0.2633 0.1387 0.035 Uiso 0.9052(7) 1 calc PR A 1 
C13 C 0.35313(10) 0.26257(9) 0.1110(2) 0.0322(7) Uani 0.9052(7) 1 d PD A 1 
H13 H 0.3575 0.2245 0.1134 0.039 Uiso 0.9052(7) 1 calc PR A 1 
C14 C 0.39371(10) 0.29564(8) 0.0916(2) 0.0293(6) Uani 0.9052(7) 1 d PD A 1 
H14 H 0.4254 0.2796 0.0802 0.035 Uiso 0.9052(7) 1 calc PR A 1 
C15 C 0.38822(9) 0.35101(8) 0.08887(19) 0.0246(6) Uani 0.9052(7) 1 d PD A 1 
H15 H 0.4159 0.3728 0.0751 0.030 Uiso 0.9052(7) 1 calc PR A 1 
C16 C 0.34196(9) 0.37539(7) 0.10631(18) 0.0207(6) Uani 0.9052(7) 1 d PD A 1 
C17 C 0.18879(9) 0.44003(8) 0.15213(19) 0.0239(6) Uani 0.9052(7) 1 d PD A 1 
C18 C 0.13307(9) 0.52467(8) 0.14725(19) 0.0235(6) Uani 0.9052(7) 1 d PD A 1 
C19 C 0.13717(10) 0.58062(9) 0.1330(3) 0.0258(7) Uani 0.9052(7) 1 d PD A 1 
C20 C 0.09478(10) 0.61518(9) 0.1389(2) 0.0300(6) Uani 0.9052(7) 1 d PD A 1 
H20 H 0.0979 0.6530 0.1305 0.036 Uiso 0.9052(7) 1 calc PR A 1 
C21 C 0.04758(10) 0.59415(9) 0.1572(2) 0.0300(6) Uani 0.9052(7) 1 d PD A 1 
H21 H 0.0183 0.6176 0.1608 0.036 Uiso 0.9052(7) 1 calc PR A 1 
C22 C 0.04333(10) 0.53924(9) 0.1702(2) 0.0290(6) Uani 0.9052(7) 1 d PD A 1 
H22 H 0.0111 0.5253 0.1829 0.035 Uiso 0.9052(7) 1 calc PR A 1 
C23 C 0.08573(9) 0.50413(9) 0.16476(19) 0.0261(6) Uani 0.9052(7) 1 d PD A 1 
H23 H 0.0822 0.4664 0.1730 0.031 Uiso 0.9052(7) 1 calc PR A 1 
C24 C 0.19745(11) 0.65247(9) 0.1115(2) 0.0281(6) Uani 0.9052(7) 1 d PD A 1 
H24A H 0.1942 0.6709 0.1702 0.034 Uiso 0.9052(7) 1 calc PR A 1 
H24B H 0.1706 0.6695 0.0518 0.034 Uiso 0.9052(7) 1 calc PR A 1 
C25 C 0.25784(11) 0.65621(11) 0.1103(3) 0.0349(7) Uani 0.9052(7) 1 d PD A 1 
H25A H 0.2839 0.6392 0.1697 0.052 Uiso 0.9052(7) 1 calc PR A 1 
H25B H 0.2682 0.6942 0.1083 0.052 Uiso 0.9052(7) 1 calc PR A 1 
H25C H 0.2604 0.6376 0.0519 0.052 Uiso 0.9052(7) 1 calc PR A 1 
C26 C 0.56142(9) 0.65382(8) 0.11895(19) 0.0250(6) Uani 0.9052(7) 1 d PD A 1 
O1M O 0.47184(7) 1.00855(6) 0.13400(15) 0.0241(4) Uani 0.9052(7) 1 d PD A 1 
O2M O 0.59376(7) 0.90758(6) 0.07926(13) 0.0277(4) Uani 0.9052(7) 1 d PD A 1 
O3M O 0.56448(8) 1.09603(6) 0.13542(16) 0.0299(6) Uani 0.9052(7) 1 d PD A 1 
O4M O 0.19875(7) 1.20281(6) 0.14216(15) 0.0310(5) Uani 0.9052(7) 1 d PD A 1 
N1M N 0.37385(9) 1.01570(7) 0.14873(17) 0.0219(5) Uani 0.9052(7) 1 d PD A 1 
H1M H 0.4055 1.0315 0.1495 0.026 Uiso 0.9052(7) 1 calc PR A 1 
N2M N 0.37133(8) 0.96287(7) 0.15060(15) 0.0208(5) Uani 0.9052(7) 1 d PD A 1 
N3M N 0.57027(8) 0.99398(7) 0.10789(15) 0.0224(5) Uani 0.9052(7) 1 d PD A 1 
H3M H 0.5433 1.0127 0.1194 0.027 Uiso 0.9052(7) 1 calc PR A 1 
N4M N 0.13525(7) 1.13416(8) 0.10967(17) 0.0275(5) Uani 0.9052(7) 1 d PD A 1 
H4M1 H 0.1069 1.1562 0.1054 0.033 Uiso 0.9052(7) 1 calc PR A 1 
H4M2 H 0.1290 1.0993 0.1010 0.033 Uiso 0.9052(7) 1 calc PR A 1 
C1M C 0.23085(9) 1.05873(8) 0.1444(2) 0.0278(6) Uani 0.9052(7) 1 d PD A 1 
H1M1 H 0.1964 1.0435 0.1464 0.033 Uiso 0.9052(7) 1 calc PR A 1 
C2M C 0.23521(8) 1.11452(8) 0.13614(19) 0.0235(6) Uani 0.9052(7) 1 d PD A 1 
C3M C 0.28622(9) 1.13563(9) 0.1340(2) 0.0339(7) Uani 0.9052(7) 1 d PD A 1 
H3M1 H 0.2901 1.1737 0.1303 0.041 Uiso 0.9052(7) 1 calc PR A 1 
C4M C 0.33152(10) 1.10288(8) 0.1369(2) 0.0342(7) Uani 0.9052(7) 1 d PD A 1 
H4M H 0.3656 1.1181 0.1331 0.041 Uiso 0.9052(7) 1 calc PR A 1 
C5M C 0.32663(9) 1.04754(8) 0.14554(18) 0.0230(6) Uani 0.9052(7) 1 d PD A 1 
C6M C 0.27630(9) 1.02509(8) 0.1498(2) 0.0281(6) Uani 0.9052(7) 1 d PD A 1 
H6M H 0.2731 0.9872 0.1563 0.034 Uiso 0.9052(7) 1 calc PR A 1 
C7M C 0.41532(9) 0.93373(8) 0.14328(19) 0.0194(6) Uani 0.9052(7) 1 d PD A 1 
C8M C 0.46515(9) 0.95787(8) 0.12933(19) 0.0212(6) Uani 0.9052(7) 1 d PD A 1 
C9M C 0.50684(9) 0.92088(8) 0.11196(19) 0.0226(6) Uani 0.9052(7) 1 d PD A 1 
C10M C 0.49782(9) 0.86699(8) 0.11064(19) 0.0241(6) Uani 0.9052(7) 1 d PD A 1 
H10M H 0.5253 0.8440 0.0993 0.029 Uiso 0.9052(7) 1 calc PR A 1 
C11M C 0.44936(9) 0.84236(8) 0.12533(18) 0.0219(6) Uani 0.9052(7) 1 d PD A 1 
C12M C 0.44277(10) 0.78579(8) 0.1236(2) 0.0287(6) Uani 0.9052(7) 1 d PD A 1 
H12M H 0.4706 0.7634 0.1115 0.034 Uiso 0.9052(7) 1 calc PR A 1 
C13M C 0.39668(10) 0.76266(9) 0.1391(2) 0.0320(7) Uani 0.9052(7) 1 d PD A 1 
H13M H 0.3922 0.7246 0.1364 0.038 Uiso 0.9052(7) 1 calc PR A 1 
C14M C 0.35630(10) 0.79565(8) 0.1588(2) 0.0294(6) Uani 0.9052(7) 1 d PD A 1 
H14M H 0.3248 0.7796 0.1707 0.035 Uiso 0.9052(7) 1 calc PR A 1 
C15M C 0.36158(9) 0.85114(8) 0.16113(19) 0.0239(6) Uani 0.9052(7) 1 d PD A 1 
H15M H 0.3337 0.8729 0.1744 0.029 Uiso 0.9052(7) 1 calc PR A 1 
C16M C 0.40804(9) 0.87538(7) 0.14395(18) 0.0206(6) Uani 0.9052(7) 1 d PD A 1 
C17M C 0.56095(9) 0.94002(8) 0.09738(19) 0.0223(6) Uani 0.9052(7) 1 d PD A 1 
C18M C 0.61700(9) 1.02457(8) 0.10299(19) 0.0233(6) Uani 0.9052(7) 1 d PD A 1 
C19M C 0.61287(10) 1.08054(8) 0.1172(2) 0.0257(7) Uani 0.9052(7) 1 d PD A 1 
C20M C 0.65546(10) 1.11507(9) 0.11165(19) 0.0283(6) Uani 0.9052(7) 1 d PD A 1 
H20M H 0.6526 1.1528 0.1208 0.034 Uiso 0.9052(7) 1 calc PR A 1 
C21M C 0.70231(10) 1.09401(9) 0.0926(2) 0.0315(7) Uani 0.9052(7) 1 d PD A 1 
H21M H 0.7314 1.1175 0.0883 0.038 Uiso 0.9052(7) 1 calc PR A 1 
C22M C 0.70675(10) 1.03914(9) 0.0798(2) 0.0287(6) Uani 0.9052(7) 1 d PD A 1 
H22M H 0.7389 1.0252 0.0669 0.034 Uiso 0.9052(7) 1 calc PR A 1 
C23M C 0.66428(9) 1.00404(9) 0.08574(19) 0.0253(6) Uani 0.9052(7) 1 d PD A 1 
H23M H 0.6678 0.9663 0.0780 0.030 Uiso 0.9052(7) 1 calc PR A 1 
C24M C 0.55249(11) 1.15249(9) 0.1378(2) 0.0289(6) Uani 0.9052(7) 1 d PD A 1 
H24C H 0.5555 1.1708 0.0788 0.035 Uiso 0.9052(7) 1 calc PR A 1 
H24D H 0.5795 1.1696 0.1972 0.035 Uiso 0.9052(7) 1 calc PR A 1 
C25M C 0.49222(11) 1.15635(11) 0.1396(3) 0.0355(7) Uani 0.9052(7) 1 d PD A 1 
H25D H 0.4661 1.1388 0.0809 0.053 Uiso 0.9052(7) 1 calc PR A 1 
H25E H 0.4817 1.1944 0.1405 0.053 Uiso 0.9052(7) 1 calc PR A 1 
H25F H 0.4900 1.1383 0.1987 0.053 Uiso 0.9052(7) 1 calc PR A 1 
C26M C 0.18820(9) 1.15385(8) 0.12946(19) 0.0255(6) Uani 0.9052(7) 1 d PD A 1 
O31 O 0.96809(7) 0.91229(6) 0.12276(15) 0.0279(5) Uani 0.9052(7) 1 d PD A 1 
O32 O 1.09918(7) 1.01242(6) 0.10084(16) 0.0277(5) Uani 0.9052(7) 1 d PD A 1 
O33 O 1.06223(7) 0.82269(6) 0.13361(15) 0.0372(5) Uani 0.9052(7) 1 d PD A 1 
O34 O 0.69570(7) 0.71983(6) 0.13614(14) 0.0288(5) Uani 0.9052(7) 1 d PD A 1 
N31 N 0.86833(8) 0.90640(7) 0.13027(16) 0.0248(5) Uani 0.9052(7) 1 d PD A 1 
H31 H 0.8984 0.8905 0.1242 0.030 Uiso 0.9052(7) 1 calc PR A 1 
N32 N 0.86844(8) 0.95893(7) 0.14170(15) 0.0231(5) Uani 0.9052(7) 1 d PD A 1 
N33 N 1.07102(8) 0.92553(7) 0.11498(18) 0.0253(5) Uani 0.9052(7) 1 d PD A 1 
H33 H 1.0431 0.9069 0.1238 0.030 Uiso 0.9052(7) 1 calc PR A 1 
N34 N 0.63285(8) 0.78864(8) 0.11456(19) 0.0261(6) Uani 0.9052(7) 1 d PD A 1 
H34A H 0.6053 0.7667 0.1151 0.031 Uiso 0.9052(7) 1 calc PR A 1 
H34B H 0.6265 0.8236 0.1070 0.031 Uiso 0.9052(7) 1 calc PR A 1 
C31 C 0.72855(9) 0.86349(8) 0.14242(19) 0.0239(6) Uani 0.9052(7) 1 d PD A 1 
H31A H 0.6961 0.8783 0.1534 0.029 Uiso 0.9052(7) 1 calc PR A 1 
C32 C 0.73053(9) 0.80816(8) 0.12437(19) 0.0249(6) Uani 0.9052(7) 1 d PD A 1 
C33 C 0.77815(10) 0.78746(9) 0.1077(2) 0.0316(7) Uani 0.9052(7) 1 d PD A 1 
H33A H 0.7800 0.7499 0.0959 0.038 Uiso 0.9052(7) 1 calc PR A 1 
C34 C 0.82299(10) 0.82032(8) 0.1079(2) 0.0289(6) Uani 0.9052(7) 1 d PD A 1 
H34 H 0.8548 0.8056 0.0947 0.035 Uiso 0.9052(7) 1 calc PR A 1 
C35 C 0.82090(9) 0.87498(8) 0.12750(19) 0.0233(6) Uani 0.9052(7) 1 d PD A 1 
C36 C 0.77357(9) 0.89708(8) 0.14447(19) 0.0252(6) Uani 0.9052(7) 1 d PD A 1 
H36 H 0.7721 0.9346 0.1573 0.030 Uiso 0.9052(7) 1 calc PR A 1 
C37 C 0.91424(8) 0.98736(7) 0.14095(18) 0.0211(6) Uani 0.9052(7) 1 d PD A 1 
C38 C 0.96441(9) 0.96292(8) 0.12897(19) 0.0230(6) Uani 0.9052(7) 1 d PD A 1 
C39 C 1.00920(9) 0.99950(8) 0.12200(19) 0.0238(6) Uani 0.9052(7) 1 d PD A 1 
C40 C 1.00157(9) 1.05353(8) 0.12428(19) 0.0231(6) Uani 0.9052(7) 1 d PD A 1 
H40 H 1.0302 1.0764 0.1163 0.028 Uiso 0.9052(7) 1 calc PR A 1 
C41 C 0.95297(9) 1.07851(8) 0.1380(2) 0.0207(6) Uani 0.9052(7) 1 d PD A 1 
C42 C 0.94843(10) 1.13508(8) 0.14247(19) 0.0237(6) Uani 0.9052(7) 1 d PD A 1 
H42 H 0.9769 1.1573 0.1323 0.028 Uiso 0.9052(7) 1 calc PR A 1 
C43 C 0.90346(10) 1.15835(9) 0.1613(2) 0.0269(6) Uani 0.9052(7) 1 d PD A 1 
H43 H 0.9006 1.1965 0.1637 0.032 Uiso 0.9052(7) 1 calc PR A 1 
C44 C 0.86168(10) 1.12538(8) 0.17701(19) 0.0249(6) Uani 0.9052(7) 1 d PD A 1 
H44 H 0.8310 1.1415 0.1916 0.030 Uiso 0.9052(7) 1 calc PR A 1 
C45 C 0.86450(10) 1.06998(8) 0.17156(19) 0.0223(6) Uani 0.9052(7) 1 d PD A 1 
H45 H 0.8358 1.0483 0.1821 0.027 Uiso 0.9052(7) 1 calc PR A 1 
C46 C 0.90962(9) 1.04562(7) 0.15052(18) 0.0199(6) Uani 0.9052(7) 1 d PD A 1 
C47 C 1.06400(14) 0.97992(9) 0.1110(4) 0.0237(8) Uani 0.9052(7) 1 d PD A 1 
C48 C 1.11676(9) 0.89436(8) 0.1070(2) 0.0273(6) Uani 0.9052(7) 1 d PD A 1 
C49 C 1.11100(9) 0.83841(8) 0.1160(2) 0.0317(7) Uani 0.9052(7) 1 d PD A 1 
C50 C 1.15271(11) 0.80342(9) 0.1079(2) 0.0385(7) Uani 0.9052(7) 1 d PD A 1 
H50 H 1.1489 0.7656 0.1141 0.046 Uiso 0.9052(7) 1 calc PR A 1 
C51 C 1.20014(12) 0.82449(11) 0.0906(3) 0.0423(9) Uani 0.9052(7) 1 d PD A 1 
H51 H 1.2288 0.8008 0.0850 0.051 Uiso 0.9052(7) 1 calc PR A 1 
C52 C 1.20573(10) 0.87941(10) 0.0815(2) 0.0372(7) Uani 0.9052(7) 1 d PD A 1 
H52 H 1.2382 0.8933 0.0694 0.045 Uiso 0.9052(7) 1 calc PR A 1 
C53 C 1.16427(9) 0.91475(9) 0.0898(2) 0.0302(6) Uani 0.9052(7) 1 d PD A 1 
H53 H 1.1685 0.9526 0.0837 0.036 Uiso 0.9052(7) 1 calc PR A 1 
C54 C 1.04785(13) 0.76659(10) 0.1245(3) 0.0409(9) Uani 0.9052(7) 1 d PD A 1 
H54A H 1.0749 0.7458 0.1789 0.049 Uiso 0.9052(7) 1 calc PR A 1 
H54B H 1.0490 0.7522 0.0612 0.049 Uiso 0.9052(7) 1 calc PR A 1 
C55 C 0.98818(12) 0.76233(12) 0.1292(2) 0.0469(8) Uani 0.9052(7) 1 d PD A 1 
H55A H 0.9873 0.7786 0.1906 0.070 Uiso 0.9052(7) 1 calc PR A 1 
H55B H 0.9772 0.7242 0.1269 0.070 Uiso 0.9052(7) 1 calc PR A 1 
H55C H 0.9616 0.7814 0.0730 0.070 Uiso 0.9052(7) 1 calc PR A 1 
C56 C 0.68481(9) 0.76872(8) 0.12532(19) 0.0249(6) Uani 0.9052(7) 1 d PD A 1 
O31M O 0.78192(8) 0.41227(6) 0.12747(16) 0.0285(5) Uani 0.9052(7) 1 d PD A 1 
O32M O 0.65082(7) 0.51249(6) 0.14938(17) 0.0276(5) Uani 0.9052(7) 1 d PD A 1 
O33M O 0.68754(7) 0.32262(6) 0.11681(15) 0.0370(5) Uani 0.9052(7) 1 d PD A 1 
O34M O 1.05408(7) 0.21987(6) 0.11427(14) 0.0293(5) Uani 0.9052(7) 1 d PD A 1 
N31M N 0.88172(8) 0.40641(7) 0.12021(16) 0.0246(5) Uani 0.9052(7) 1 d PD A 1 
H31M H 0.8516 0.3906 0.1264 0.030 Uiso 0.9052(7) 1 calc PR A 1 
N32M N 0.88160(8) 0.45892(7) 0.10841(15) 0.0223(5) Uani 0.9052(7) 1 d PD A 1 
N33M N 0.67883(8) 0.42557(7) 0.13515(18) 0.0239(5) Uani 0.9052(7) 1 d PD A 1 
H33M H 0.7068 0.4070 0.1265 0.029 Uiso 0.9052(7) 1 calc PR A 1 
N34M N 1.11708(8) 0.28851(8) 0.13550(19) 0.0269(6) Uani 0.9052(7) 1 d PD A 1 
H34C H 1.1444 0.2665 0.1340 0.032 Uiso 0.9052(7) 1 calc PR A 1 
H34D H 1.1236 0.3234 0.1434 0.032 Uiso 0.9052(7) 1 calc PR A 1 
C31M C 1.02157(9) 0.36352(8) 0.10817(19) 0.0230(6) Uani 0.9052(7) 1 d PD A 1 
H31B H 1.0540 0.3784 0.0974 0.028 Uiso 0.9052(7) 1 calc PR A 1 
C32M C 1.01963(9) 0.30829(8) 0.1263(2) 0.0253(6) Uani 0.9052(7) 1 d PD A 1 
C33M C 0.97190(10) 0.28753(9) 0.1430(2) 0.0303(7) Uani 0.9052(7) 1 d PD A 1 
H33B H 0.9701 0.2500 0.1548 0.036 Uiso 0.9052(7) 1 calc PR A 1 
C34M C 0.92706(10) 0.32033(8) 0.1428(2) 0.0289(6) Uani 0.9052(7) 1 d PD A 1 
H34M H 0.8953 0.3056 0.1559 0.035 Uiso 0.9052(7) 1 calc PR A 1 
C35M C 0.92911(9) 0.37497(8) 0.12313(19) 0.0239(6) Uani 0.9052(7) 1 d PD A 1 
C36M C 0.97640(9) 0.39705(8) 0.10575(19) 0.0251(6) Uani 0.9052(7) 1 d PD A 1 
H36M H 0.9777 0.4345 0.0924 0.030 Uiso 0.9052(7) 1 calc PR A 1 
C37M C 0.83568(8) 0.48737(7) 0.10887(18) 0.0210(6) Uani 0.9052(7) 1 d PD A 1 
C38M C 0.78577(9) 0.46294(8) 0.12213(19) 0.0231(6) Uani 0.9052(7) 1 d PD A 1 
C39M C 0.74070(9) 0.49946(8) 0.12800(19) 0.0229(6) Uani 0.9052(7) 1 d PD A 1 
C40M C 0.74831(9) 0.55354(8) 0.12588(18) 0.0225(6) Uani 0.9052(7) 1 d PD A 1 
H40M H 0.7197 0.5764 0.1339 0.027 Uiso 0.9052(7) 1 calc PR A 1 
C41M C 0.79704(9) 0.57849(8) 0.1123(2) 0.0212(6) Uani 0.9052(7) 1 d PD A 1 
C42M C 0.80162(10) 0.63504(8) 0.10782(19) 0.0241(6) Uani 0.9052(7) 1 d PD A 1 
H42M H 0.7732 0.6573 0.1182 0.029 Uiso 0.9052(7) 1 calc PR A 1 
C43M C 0.84658(10) 0.65827(9) 0.0887(2) 0.0271(6) Uani 0.9052(7) 1 d PD A 1 
H43M H 0.8495 0.6964 0.0862 0.032 Uiso 0.9052(7) 1 calc PR A 1 
C44M C 0.88819(10) 0.62541(8) 0.07282(19) 0.0247(6) Uani 0.9052(7) 1 d PD A 1 
H44M H 0.9188 0.6416 0.0580 0.030 Uiso 0.9052(7) 1 calc PR A 1 
C45M C 0.88547(10) 0.56994(8) 0.07837(19) 0.0231(6) Uani 0.9052(7) 1 d PD A 1 
H45M H 0.9142 0.5482 0.0679 0.028 Uiso 0.9052(7) 1 calc PR A 1 
C46M C 0.84027(9) 0.54562(7) 0.09954(18) 0.0207(6) Uani 0.9052(7) 1 d PD A 1 
C47M C 0.68586(14) 0.47992(9) 0.1392(4) 0.0214(8) Uani 0.9052(7) 1 d PD A 1 
C48M C 0.63300(9) 0.39440(8) 0.14280(19) 0.0265(6) Uani 0.9052(7) 1 d PD A 1 
C49M C 0.63866(9) 0.33852(8) 0.1337(2) 0.0310(7) Uani 0.9052(7) 1 d PD A 1 
C50M C 0.59684(10) 0.30354(9) 0.1415(2) 0.0367(7) Uani 0.9052(7) 1 d PD A 1 
H50M H 0.6005 0.2657 0.1349 0.044 Uiso 0.9052(7) 1 calc PR A 1 
C51M C 0.54944(12) 0.32465(11) 0.1591(2) 0.0440(9) Uani 0.9052(7) 1 d PD A 1 
H51M H 0.5208 0.3010 0.1647 0.053 Uiso 0.9052(7) 1 calc PR A 1 
C52M C 0.54392(10) 0.37955(10) 0.1684(2) 0.0365(7) Uani 0.9052(7) 1 d PD A 1 
H52M H 0.5115 0.3935 0.1805 0.044 Uiso 0.9052(7) 1 calc PR A 1 
C53M C 0.58568(9) 0.41487(9) 0.1602(2) 0.0299(6) Uani 0.9052(7) 1 d PD A 1 
H53M H 0.5817 0.4527 0.1665 0.036 Uiso 0.9052(7) 1 calc PR A 1 
C54M C 0.70187(13) 0.26654(9) 0.1264(2) 0.0409(9) Uani 0.9052(7) 1 d PD A 1 
H54C H 0.6746 0.2456 0.0724 0.049 Uiso 0.9052(7) 1 calc PR A 1 
H54D H 0.7010 0.2524 0.1900 0.049 Uiso 0.9052(7) 1 calc PR A 1 
C55M C 0.76130(12) 0.26202(12) 0.1211(2) 0.0474(8) Uani 0.9052(7) 1 d PD A 1 
H55D H 0.7614 0.2757 0.0575 0.071 Uiso 0.9052(7) 1 calc PR A 1 
H55E H 0.7732 0.2241 0.1282 0.071 Uiso 0.9052(7) 1 calc PR A 1 
H55F H 0.7877 0.2833 0.1743 0.071 Uiso 0.9052(7) 1 calc PR A 1 
C56M C 1.06520(9) 0.26878(8) 0.12560(19) 0.0249(6) Uani 0.9052(7) 1 d PD A 1 
O1S O 0.2780(6) 0.6655(3) 0.1128(18) 0.0238(4) Uani 0.0948(7) 1 d PD A 2 
O2S O 0.1491(6) 0.5656(4) 0.143(2) 0.0284(4) Uani 0.0948(7) 1 d PD A 2 
O3S O 0.1849(5) 0.7547(3) 0.1004(12) 0.0291(7) Uani 0.0948(7) 1 d PD A 2 
O4S O 0.5522(5) 0.8578(4) 0.1012(13) 0.0300(5) Uani 0.0948(7) 1 d PD A 2 
N1S N 0.3783(4) 0.6714(3) 0.1051(14) 0.0215(5) Uani 0.0948(7) 1 d PD A 2 
H1S H 0.3481 0.6874 0.1104 0.026 Uiso 0.0948(7) 1 calc PR A 2 
N2S N 0.3780(4) 0.6189(3) 0.0943(14) 0.0216(5) Uani 0.0948(7) 1 d PD A 2 
N3S N 0.1772(6) 0.6523(3) 0.1269(19) 0.0238(5) Uani 0.0948(7) 1 d PD A 2 
H3S H 0.2049 0.6705 0.1166 0.029 Uiso 0.0948(7) 1 calc PR A 2 
N4S N 0.6151(5) 0.7888(5) 0.127(2) 0.0268(5) Uani 0.0948(7) 1 d PD A 2 
H4S1 H 0.6432 0.8108 0.1300 0.032 Uiso 0.0948(7) 1 calc PR A 2 
H4S2 H 0.6212 0.7539 0.1350 0.032 Uiso 0.0948(7) 1 calc PR A 2 
C1S C 0.5188(6) 0.7140(4) 0.096(2) 0.0278(6) Uani 0.0948(7) 1 d PD A 2 
H1S1 H 0.5521 0.6988 0.0893 0.033 Uiso 0.0948(7) 1 calc PR A 2 
C2S C 0.5162(5) 0.7696(3) 0.1106(17) 0.0227(6) Uani 0.0948(7) 1 d PD A 2 
C3S C 0.4663(6) 0.7909(3) 0.118(2) 0.0313(7) Uani 0.0948(7) 1 d PD A 2 
H3S1 H 0.4619 0.8290 0.1186 0.038 Uiso 0.0948(7) 1 calc PR A 2 
C4S C 0.4229(6) 0.7579(3) 0.124(2) 0.0323(7) Uani 0.0948(7) 1 d PD A 2 
H4S H 0.3914 0.7728 0.1376 0.039 Uiso 0.0948(7) 1 calc PR A 2 
C5S C 0.4258(5) 0.7028(3) 0.1086(16) 0.0213(6) Uani 0.0948(7) 1 d PD A 2 
C6S C 0.4730(6) 0.6808(3) 0.0906(18) 0.0277(6) Uani 0.0948(7) 1 d PD A 2 
H6S H 0.4737 0.6436 0.0750 0.033 Uiso 0.0948(7) 1 calc PR A 2 
C7S C 0.3337(5) 0.5902(3) 0.1017(16) 0.0201(6) Uani 0.0948(7) 1 d PD A 2 
C8S C 0.2824(5) 0.6147(3) 0.1088(17) 0.0217(6) Uani 0.0948(7) 1 d PD A 2 
C9S C 0.2378(5) 0.5780(3) 0.1167(17) 0.0234(6) Uani 0.0948(7) 1 d PD A 2 
C10S C 0.2464(5) 0.5241(3) 0.1184(18) 0.0242(6) Uani 0.0948(7) 1 d PD A 2 
H10S H 0.2174 0.5013 0.1253 0.029 Uiso 0.0948(7) 1 calc PR A 2 
C11S C 0.2965(6) 0.4991(2) 0.111(2) 0.0225(6) Uani 0.0948(7) 1 d PD A 2 
C12S C 0.3003(8) 0.4425(3) 0.104(2) 0.0291(7) Uani 0.0948(7) 1 d PD A 2 
H12S H 0.2702 0.4203 0.1078 0.035 Uiso 0.0948(7) 1 calc PR A 2 
C13S C 0.3471(9) 0.4191(3) 0.091(3) 0.0322(7) Uani 0.0948(7) 1 d PD A 2 
H13S H 0.3512 0.3809 0.0933 0.039 Uiso 0.0948(7) 1 calc PR A 2 
C14S C 0.3888(9) 0.4519(4) 0.075(3) 0.0293(6) Uani 0.0948(7) 1 d PD A 2 
H14S H 0.4199 0.4357 0.0620 0.035 Uiso 0.0948(7) 1 calc PR A 2 
C15S C 0.3851(8) 0.5074(4) 0.078(2) 0.0246(6) Uani 0.0948(7) 1 d PD A 2 
H15S H 0.4128 0.5291 0.0637 0.030 Uiso 0.0948(7) 1 calc PR A 2 
C16S C 0.3406(5) 0.5318(3) 0.1007(15) 0.0207(6) Uani 0.0948(7) 1 d PD A 2 
C17S C 0.1847(9) 0.5980(3) 0.134(3) 0.0239(6) Uani 0.0948(7) 1 d PD A 2 
C18S C 0.1315(5) 0.6839(3) 0.1333(17) 0.0235(6) Uani 0.0948(7) 1 d PD A 2 
C19S C 0.1366(5) 0.7396(3) 0.1201(17) 0.0258(7) Uani 0.0948(7) 1 d PD A 2 
C20S C 0.0958(6) 0.7752(3) 0.1295(18) 0.0300(6) Uani 0.0948(7) 1 d PD A 2 
H20S H 0.0999 0.8130 0.1226 0.036 Uiso 0.0948(7) 1 calc PR A 2 
C21S C 0.0487(9) 0.7549(5) 0.149(3) 0.0300(6) Uani 0.0948(7) 1 d PD A 2 
H21S H 0.0204 0.7789 0.1551 0.036 Uiso 0.0948(7) 1 calc PR A 2 
C22S C 0.0430(6) 0.7001(5) 0.1601(18) 0.0290(6) Uani 0.0948(7) 1 d PD A 2 
H22S H 0.0104 0.6866 0.1721 0.035 Uiso 0.0948(7) 1 calc PR A 2 
C23S C 0.0846(6) 0.6643(4) 0.1536(18) 0.0261(6) Uani 0.0948(7) 1 d PD A 2 
H23S H 0.0809 0.6267 0.1630 0.031 Uiso 0.0948(7) 1 calc PR A 2 
C24S C 0.2005(9) 0.8107(4) 0.110(3) 0.0281(6) Uani 0.0948(7) 1 d PD A 2 
H24Cx H 0.1982 0.8254 0.1728 0.034 Uiso 0.0948(7) 1 calc PR A 2 
H24Dx H 0.1750 0.8318 0.0549 0.034 Uiso 0.0948(7) 1 calc PR A 2 
C25S C 0.2612(7) 0.8132(7) 0.110(2) 0.0349(7) Uani 0.0948(7) 1 d PD A 2 
H25Dx H 0.2871 0.7995 0.1732 0.052 Uiso 0.0948(7) 1 calc PR A 2 
H25Ex H 0.2710 0.8508 0.1017 0.052 Uiso 0.0948(7) 1 calc PR A 2 
H25Fx H 0.2647 0.7912 0.0563 0.052 Uiso 0.0948(7) 1 calc PR A 2 
C26S C 0.5626(4) 0.8087(4) 0.1121(16) 0.0250(6) Uani 0.0948(7) 1 d PD A 2 
O1A O 0.4720(6) 1.1652(3) 0.1342(19) 0.0241(4) Uani 0.0948(7) 1 d PD A 2 
O2A O 0.6024(6) 1.0653(4) 0.108(2) 0.0277(4) Uani 0.0948(7) 1 d PD A 2 
O3A O 0.5659(5) 1.2546(3) 0.1446(12) 0.0299(6) Uani 0.0948(7) 1 d PD A 2 
O4A O 0.1982(5) 1.3575(3) 0.1421(13) 0.0310(5) Uani 0.0948(7) 1 d PD A 2 
N1A N 0.3725(4) 1.1708(3) 0.1435(14) 0.0219(5) Uani 0.0948(7) 1 d PD A 2 
H1A1 H 0.4023 1.1866 0.1359 0.026 Uiso 0.0948(7) 1 calc PR A 2 
N2A N 0.3734(4) 1.1185(3) 0.1570(13) 0.0208(5) Uani 0.0948(7) 1 d PD A 2 
N3A N 0.5729(5) 1.1522(3) 0.1174(17) 0.0224(5) Uani 0.0948(7) 1 d PD A 2 
H3A1 H 0.5440 1.1708 0.1222 0.027 Uiso 0.0948(7) 1 calc PR A 2 
N4A N 0.1359(5) 1.2884(5) 0.121(2) 0.0275(5) Uani 0.0948(7) 1 d PD A 2 
H4A1 H 0.1091 1.3100 0.1260 0.033 Uiso 0.0948(7) 1 calc PR A 2 
H4A2 H 0.1292 1.2536 0.1111 0.033 Uiso 0.0948(7) 1 calc PR A 2 
C1A C 0.2313(5) 1.2139(4) 0.148(2) 0.0278(6) Uani 0.0948(7) 1 d PD A 2 
H1A2 H 0.1974 1.1987 0.1525 0.033 Uiso 0.0948(7) 1 calc PR A 2 
C2A C 0.2339(5) 1.2693(3) 0.1324(17) 0.0235(6) Uani 0.0948(7) 1 d PD A 2 
C3A C 0.2829(7) 1.2901(4) 0.121(3) 0.0339(7) Uani 0.0948(7) 1 d PD A 2 
H3A2 H 0.2857 1.3279 0.1122 0.041 Uiso 0.0948(7) 1 calc PR A 2 
C4A C 0.3277(7) 1.2571(4) 0.121(2) 0.0342(7) Uani 0.0948(7) 1 d PD A 2 
H4A3 H 0.3597 1.2718 0.1089 0.041 Uiso 0.0948(7) 1 calc PR A 2 
C5A C 0.3254(5) 1.2024(3) 0.1407(17) 0.0230(6) Uani 0.0948(7) 1 d PD A 2 
C6A C 0.2777(5) 1.1807(4) 0.1570(18) 0.0281(6) Uani 0.0948(7) 1 d PD A 2 
H6A H 0.2769 1.1438 0.1741 0.034 Uiso 0.0948(7) 1 calc PR A 2 
C7A C 0.4177(5) 1.0898(3) 0.1495(15) 0.0194(6) Uani 0.0948(7) 1 d PD A 2 
C8A C 0.4673(5) 1.1145(3) 0.1356(17) 0.0212(6) Uani 0.0948(7) 1 d PD A 2 
C9A C 0.5127(5) 1.0780(3) 0.1304(16) 0.0226(6) Uani 0.0948(7) 1 d PD A 2 
C10A C 0.5037(5) 1.0240(3) 0.1269(17) 0.0241(6) Uani 0.0948(7) 1 d PD A 2 
H10A H 0.5321 1.0013 0.1176 0.029 Uiso 0.0948(7) 1 calc PR A 2 
C11A C 0.4542(7) 0.9988(2) 0.136(2) 0.0219(6) Uani 0.0948(7) 1 d PD A 2 
C12A C 0.4501(8) 0.9422(3) 0.142(2) 0.0287(6) Uani 0.0948(7) 1 d PD A 2 
H12A H 0.4792 0.9201 0.1333 0.034 Uiso 0.0948(7) 1 calc PR A 2 
C13A C 0.4046(9) 0.9186(3) 0.158(3) 0.0320(7) Uani 0.0948(7) 1 d PD A 2 
H13A H 0.4005 0.8805 0.1563 0.038 Uiso 0.0948(7) 1 calc PR A 2 
C14A C 0.3641(9) 0.9514(4) 0.179(2) 0.0294(6) Uani 0.0948(7) 1 d PD A 2 
H14A H 0.3353 0.9352 0.1985 0.035 Uiso 0.0948(7) 1 calc PR A 2 
C15A C 0.3658(8) 1.0067(4) 0.170(3) 0.0239(6) Uani 0.0948(7) 1 d PD A 2 
H15A H 0.3367 1.0283 0.1804 0.029 Uiso 0.0948(7) 1 calc PR A 2 
C16A C 0.4102(5) 1.0314(3) 0.1475(15) 0.0206(6) Uani 0.0948(7) 1 d PD A 2 
C17A C 0.5656(7) 1.0978(3) 0.112(3) 0.0223(6) Uani 0.0948(7) 1 d PD A 2 
C18A C 0.6202(5) 1.1832(3) 0.1163(16) 0.0233(6) Uani 0.0948(7) 1 d PD A 2 
C19A C 0.6157(5) 1.2389(3) 0.1304(16) 0.0257(7) Uani 0.0948(7) 1 d PD A 2 
C20A C 0.6565(6) 1.2742(3) 0.1201(18) 0.0283(6) Uani 0.0948(7) 1 d PD A 2 
H20A H 0.6523 1.3120 0.1255 0.034 Uiso 0.0948(7) 1 calc PR A 2 
C21A C 0.7039(8) 1.2535(5) 0.102(3) 0.0315(7) Uani 0.0948(7) 1 d PD A 2 
H21A H 0.7335 1.2770 0.1003 0.038 Uiso 0.0948(7) 1 calc PR A 2 
C22A C 0.7078(6) 1.1989(5) 0.0862(18) 0.0287(6) Uani 0.0948(7) 1 d PD A 2 
H22A H 0.7384 1.1855 0.0678 0.034 Uiso 0.0948(7) 1 calc PR A 2 
C23A C 0.6672(6) 1.1631(4) 0.0971(17) 0.0253(6) Uani 0.0948(7) 1 d PD A 2 
H23A H 0.6718 1.1253 0.0914 0.030 Uiso 0.0948(7) 1 calc PR A 2 
C24A C 0.5514(8) 1.3108(4) 0.134(3) 0.0289(6) Uani 0.0948(7) 1 d PD A 2 
H24E H 0.5514 1.3244 0.0694 0.035 Uiso 0.0948(7) 1 calc PR A 2 
H24F H 0.5789 1.3321 0.1867 0.035 Uiso 0.0948(7) 1 calc PR A 2 
C25A C 0.4924(7) 1.3152(7) 0.141(2) 0.0355(7) Uani 0.0948(7) 1 d PD A 2 
H25G H 0.4778 1.3518 0.1234 0.053 Uiso 0.0948(7) 1 calc PR A 2 
H25H H 0.4942 1.3073 0.2088 0.053 Uiso 0.0948(7) 1 calc PR A 2 
H25I H 0.4670 1.2892 0.0961 0.053 Uiso 0.0948(7) 1 calc PR A 2 
C26A C 0.1873(4) 1.3087(4) 0.1282(16) 0.0255(6) Uani 0.0948(7) 1 d PD A 2 
O31S O 0.9738(6) 1.0687(3) 0.135(2) 0.0279(5) Uani 0.0948(7) 1 d PD A 2 
O32S O 1.0959(5) 1.1704(4) 0.0831(12) 0.0277(5) Uani 0.0948(7) 1 d PD A 2 
O33S O 1.0628(10) 0.9810(4) 0.127(3) 0.0372(5) Uani 0.0948(7) 1 d PD A 2 
O34S O 0.6967(5) 0.8744(3) 0.1311(14) 0.0288(5) Uani 0.0948(7) 1 d PD A 2 
N31S N 0.8744(5) 1.0607(3) 0.144(2) 0.0248(5) Uani 0.0948(7) 1 d PD A 2 
H31S H 0.9056 1.0451 0.1418 0.030 Uiso 0.0948(7) 1 calc PR A 2 
N32S N 0.8719(5) 1.1136(3) 0.1468(17) 0.0231(5) Uani 0.0948(7) 1 d PD A 2 
N33S N 1.0704(5) 1.0833(3) 0.1033(15) 0.0253(5) Uani 0.0948(7) 1 d PD A 2 
H33S H 1.0432 1.0646 0.1145 0.030 Uiso 0.0948(7) 1 calc PR A 2 
N34S N 0.6356(4) 0.9445(5) 0.1086(15) 0.0261(6) Uani 0.0948(7) 1 d PD A 2 
H34Cx H 0.6068 0.9229 0.1037 0.031 Uiso 0.0948(7) 1 calc PR A 2 
H34Dx H 0.6304 0.9797 0.1037 0.031 Uiso 0.0948(7) 1 calc PR A 2 
C31S C 0.7322(5) 1.0180(3) 0.1441(19) 0.0239(6) Uani 0.0948(7) 1 d PD A 2 
H31Bx H 0.6988 1.0331 0.1512 0.029 Uiso 0.0948(7) 1 calc PR A 2 
C32S C 0.7352(4) 0.9624(3) 0.1299(17) 0.0249(6) Uani 0.0948(7) 1 d PD A 2 
C33S C 0.7865(5) 0.9408(3) 0.1302(19) 0.0316(7) Uani 0.0948(7) 1 d PD A 2 
H33Bx H 0.7911 0.9027 0.1312 0.038 Uiso 0.0948(7) 1 calc PR A 2 
C34S C 0.8312(5) 0.9737(3) 0.1292(19) 0.0289(6) Uani 0.0948(7) 1 d PD A 2 
H34S H 0.8638 0.9587 0.1191 0.035 Uiso 0.0948(7) 1 calc PR A 2 
C35S C 0.8276(5) 1.0288(3) 0.1430(17) 0.0233(6) Uani 0.0948(7) 1 d PD A 2 
C36S C 0.7775(5) 1.0515(3) 0.1479(18) 0.0252(6) Uani 0.0948(7) 1 d PD A 2 
H36S H 0.7744 1.0895 0.1538 0.030 Uiso 0.0948(7) 1 calc PR A 2 
C37S C 0.9159(6) 1.1430(3) 0.141(2) 0.0211(6) Uani 0.0948(7) 1 d PD A 2 
C38S C 0.9665(6) 1.1192(3) 0.129(2) 0.0230(6) Uani 0.0948(7) 1 d PD A 2 
C39S C 1.0092(5) 1.1565(3) 0.1159(17) 0.0238(6) Uani 0.0948(7) 1 d PD A 2 
C40S C 1.0004(5) 1.2104(3) 0.1160(17) 0.0231(6) Uani 0.0948(7) 1 d PD A 2 
H40S H 1.0286 1.2336 0.1075 0.028 Uiso 0.0948(7) 1 calc PR A 2 
C41S C 0.9510(5) 1.2347(2) 0.1284(15) 0.0207(6) Uani 0.0948(7) 1 d PD A 2 
C42S C 0.9477(7) 1.2911(3) 0.140(2) 0.0237(6) Uani 0.0948(7) 1 d PD A 2 
H42S H 0.9781 1.3134 0.1374 0.028 Uiso 0.0948(7) 1 calc PR A 2 
C43S C 0.9013(7) 1.3139(3) 0.154(2) 0.0269(6) Uani 0.0948(7) 1 d PD A 2 
H43S H 0.8974 1.3521 0.1545 0.032 Uiso 0.0948(7) 1 calc PR A 2 
C44S C 0.8595(6) 1.2805(4) 0.1686(17) 0.0249(6) Uani 0.0948(7) 1 d PD A 2 
H44S H 0.8269 1.2962 0.1777 0.030 Uiso 0.0948(7) 1 calc PR A 2 
C45S C 0.8650(6) 1.2251(3) 0.1698(16) 0.0223(6) Uani 0.0948(7) 1 d PD A 2 
H45S H 0.8388 1.2030 0.1872 0.027 Uiso 0.0948(7) 1 calc PR A 2 
C46S C 0.9093(5) 1.2012(3) 0.1452(15) 0.0199(6) Uani 0.0948(7) 1 d PD A 2 
C47S C 1.0617(5) 1.1374(3) 0.0952(16) 0.0237(8) Uani 0.0948(7) 1 d PD A 2 
C48S C 1.1163(5) 1.0523(3) 0.0964(18) 0.0273(6) Uani 0.0948(7) 1 d PD A 2 
C49S C 1.1104(7) 0.9962(3) 0.105(3) 0.0317(7) Uani 0.0948(7) 1 d PD A 2 
C50S C 1.1533(7) 0.9614(4) 0.102(2) 0.0385(7) Uani 0.0948(7) 1 d PD A 2 
H50S H 1.1491 0.9235 0.1065 0.046 Uiso 0.0948(7) 1 calc PR A 2 
C51S C 1.2027(6) 0.9826(5) 0.092(2) 0.0423(9) Uani 0.0948(7) 1 d PD A 2 
H51S H 1.2330 0.9592 0.0928 0.051 Uiso 0.0948(7) 1 calc PR A 2 
C52S C 1.2077(6) 1.0375(5) 0.080(2) 0.0372(7) Uani 0.0948(7) 1 d PD A 2 
H52S H 1.2396 1.0513 0.0660 0.045 Uiso 0.0948(7) 1 calc PR A 2 
C53S C 1.1663(5) 1.0729(4) 0.0887(18) 0.0302(6) Uani 0.0948(7) 1 d PD A 2 
H53S H 1.1722 1.1108 0.0893 0.036 Uiso 0.0948(7) 1 calc PR A 2 
C54S C 1.0505(10) 0.9245(5) 0.127(3) 0.0409(9) Uani 0.0948(7) 1 d PD A 2 
H54Cx H 1.0767 0.9070 0.1867 0.049 Uiso 0.0948(7) 1 calc PR A 2 
H54Dx H 1.0546 0.9067 0.0682 0.049 Uiso 0.0948(7) 1 calc PR A 2 
C55S C 0.9896(10) 0.9205(10) 0.125(3) 0.0469(8) Uani 0.0948(7) 1 d PD A 2 
H55Dx H 0.9894 0.9123 0.1916 0.070 Uiso 0.0948(7) 1 calc PR A 2 
H55Ex H 0.9699 0.8917 0.0800 0.070 Uiso 0.0948(7) 1 calc PR A 2 
H55Fx H 0.9701 0.9549 0.1031 0.070 Uiso 0.0948(7) 1 calc PR A 2 
C56S C 0.6877(4) 0.9237(3) 0.1237(17) 0.0249(6) Uani 0.0948(7) 1 d PD A 2 
O31B O 0.7791(7) 0.5688(3) 0.120(2) 0.0285(5) Uani 0.0948(7) 1 d PD A 2 
O32B O 0.6556(4) 0.6706(4) 0.1664(12) 0.0276(5) Uani 0.0948(7) 1 d PD A 2 
O33B O 0.6887(10) 0.4807(4) 0.125(3) 0.0370(5) Uani 0.0948(7) 1 d PD A 2 
O34B O 1.0550(5) 0.3740(3) 0.1225(14) 0.0293(5) Uani 0.0948(7) 1 d PD A 2 
N31B N 0.8780(5) 0.5610(3) 0.1081(18) 0.0246(5) Uani 0.0948(7) 1 d PD A 2 
H31C H 0.8463 0.5453 0.1079 0.030 Uiso 0.0948(7) 1 calc PR A 2 
N32B N 0.8807(5) 0.6138(3) 0.1062(17) 0.0223(5) Uani 0.0948(7) 1 d PD A 2 
N33B N 0.6812(5) 0.5835(3) 0.1462(15) 0.0239(5) Uani 0.0948(7) 1 d PD A 2 
H33C H 0.7083 0.5648 0.1350 0.029 Uiso 0.0948(7) 1 calc PR A 2 
N34B N 1.1166(4) 0.4438(5) 0.1448(15) 0.0269(6) Uani 0.0948(7) 1 d PD A 2 
H34E H 1.1447 0.4222 0.1458 0.032 Uiso 0.0948(7) 1 calc PR A 2 
H34F H 1.1223 0.4788 0.1518 0.032 Uiso 0.0948(7) 1 calc PR A 2 
C31B C 1.0198(5) 0.5175(3) 0.1067(18) 0.0230(6) Uani 0.0948(7) 1 d PD A 2 
H31D H 1.0519 0.5319 0.0946 0.028 Uiso 0.0948(7) 1 calc PR A 2 
C32B C 1.0171(5) 0.4622(3) 0.1238(17) 0.0253(6) Uani 0.0948(7) 1 d PD A 2 
C33B C 0.9663(5) 0.4409(3) 0.1269(19) 0.0303(7) Uani 0.0948(7) 1 d PD A 2 
H33D H 0.9622 0.4029 0.1296 0.036 Uiso 0.0948(7) 1 calc PR A 2 
C34B C 0.9214(5) 0.4740(3) 0.1261(19) 0.0289(6) Uani 0.0948(7) 1 d PD A 2 
H34G H 0.8888 0.4592 0.1363 0.035 Uiso 0.0948(7) 1 calc PR A 2 
C35B C 0.9249(5) 0.5289(3) 0.1104(16) 0.0239(6) Uani 0.0948(7) 1 d PD A 2 
C36B C 0.9756(5) 0.5515(3) 0.1073(17) 0.0251(6) Uani 0.0948(7) 1 d PD A 2 
H36B H 0.9798 0.5896 0.1057 0.030 Uiso 0.0948(7) 1 calc PR A 2 
C37B C 0.8367(6) 0.6430(3) 0.113(2) 0.0210(6) Uani 0.0948(7) 1 d PD A 2 
C38B C 0.7872(5) 0.6193(3) 0.1286(18) 0.0231(6) Uani 0.0948(7) 1 d PD A 2 
C39B C 0.7435(5) 0.6566(3) 0.1380(17) 0.0229(6) Uani 0.0948(7) 1 d PD A 2 
C40B C 0.7515(5) 0.7105(3) 0.1345(17) 0.0225(6) Uani 0.0948(7) 1 d PD A 2 
H40B H 0.7224 0.7337 0.1398 0.027 Uiso 0.0948(7) 1 calc PR A 2 
C41B C 0.8012(5) 0.7348(2) 0.1232(15) 0.0212(6) Uani 0.0948(7) 1 d PD A 2 
C42B C 0.8045(7) 0.7912(3) 0.112(2) 0.0241(6) Uani 0.0948(7) 1 d PD A 2 
H42B H 0.7747 0.8136 0.1164 0.029 Uiso 0.0948(7) 1 calc PR A 2 
C43B C 0.8504(7) 0.8139(3) 0.095(2) 0.0271(6) Uani 0.0948(7) 1 d PD A 2 
H43B H 0.8537 0.8520 0.0929 0.032 Uiso 0.0948(7) 1 calc PR A 2 
C44B C 0.8923(6) 0.7804(4) 0.0815(18) 0.0247(6) Uani 0.0948(7) 1 d PD A 2 
H44B H 0.9243 0.7961 0.0705 0.030 Uiso 0.0948(7) 1 calc PR A 2 
C45B C 0.8878(6) 0.7250(3) 0.0839(17) 0.0231(6) Uani 0.0948(7) 1 d PD A 2 
H45B H 0.9160 0.7029 0.0724 0.028 Uiso 0.0948(7) 1 calc PR A 2 
C46B C 0.8418(5) 0.7012(3) 0.1031(16) 0.0207(6) Uani 0.0948(7) 1 d PD A 2 
C47B C 0.6898(5) 0.6376(3) 0.1542(16) 0.0214(8) Uani 0.0948(7) 1 d PD A 2 
C48B C 0.6351(5) 0.5527(3) 0.1533(17) 0.0265(6) Uani 0.0948(7) 1 d PD A 2 
C49B C 0.6396(8) 0.4967(3) 0.141(3) 0.0310(7) Uani 0.0948(7) 1 d PD A 2 
C50B C 0.5962(7) 0.4624(4) 0.144(2) 0.0367(7) Uani 0.0948(7) 1 d PD A 2 
H50B H 0.5993 0.4246 0.1354 0.044 Uiso 0.0948(7) 1 calc PR A 2 
C51B C 0.5480(7) 0.4838(5) 0.158(2) 0.0440(9) Uani 0.0948(7) 1 d PD A 2 
H51B H 0.5183 0.4605 0.1601 0.053 Uiso 0.0948(7) 1 calc PR A 2 
C52B C 0.5433(6) 0.5388(5) 0.169(2) 0.0365(7) Uani 0.0948(7) 1 d PD A 2 
H52B H 0.5110 0.5529 0.1810 0.044 Uiso 0.0948(7) 1 calc PR A 2 
C53B C 0.5856(5) 0.5738(4) 0.1623(18) 0.0299(6) Uani 0.0948(7) 1 d PD A 2 
H53B H 0.5806 0.6117 0.1639 0.036 Uiso 0.0948(7) 1 calc PR A 2 
C54B C 0.7005(10) 0.4240(5) 0.127(3) 0.0409(9) Uani 0.0948(7) 1 d PD A 2 
H54E H 0.6738 0.4060 0.0683 0.049 Uiso 0.0948(7) 1 calc PR A 2 
H54F H 0.6968 0.4071 0.1867 0.049 Uiso 0.0948(7) 1 calc PR A 2 
C55B C 0.7611(10) 0.4190(10) 0.127(3) 0.0474(8) Uani 0.0948(7) 1 d PD A 2 
H55G H 0.7831 0.4505 0.1602 0.071 Uiso 0.0948(7) 1 calc PR A 2 
H55H H 0.7609 0.4173 0.0593 0.071 Uiso 0.0948(7) 1 calc PR A 2 
H55I H 0.7783 0.3861 0.1624 0.071 Uiso 0.0948(7) 1 calc PR A 2 
C56B C 1.0647(4) 0.4232(3) 0.1326(16) 0.0249(6) Uani 0.0948(7) 1 d PD A 2 
 
loop_ 
 _atom_site_aniso_label 
 _atom_site_aniso_U_11 
 _atom_site_aniso_U_22 
 _atom_site_aniso_U_33 
 _atom_site_aniso_U_23 
 _atom_site_aniso_U_13 
 _atom_site_aniso_U_12 
O1 0.0235(11) 0.0108(9) 0.0398(11) -0.0001(8) 0.0141(9) -0.0042(7) 
O2 0.0244(9) 0.0157(9) 0.0514(12) -0.0013(8) 0.0209(9) -0.0061(7) 
O3 0.0302(10) 0.0143(9) 0.0469(18) -0.0008(8) 0.0185(10) -0.0046(8) 
O4 0.0270(10) 0.0120(10) 0.0567(13) -0.0013(8) 0.0217(10) -0.0037(7) 
N1 0.0222(12) 0.0092(11) 0.0355(16) 0.0001(9) 0.0129(10) -0.0043(9) 
N2 0.0257(12) 0.0124(12) 0.0270(14) -0.0005(9) 0.0094(9) -0.0065(9) 
N3 0.0241(12) 0.0104(11) 0.0400(14) -0.0019(9) 0.0149(10) -0.0031(8) 
N4 0.0211(12) 0.0132(11) 0.0483(14) 0.0009(9) 0.0146(10) -0.0064(9) 
C1 0.0233(14) 0.0169(14) 0.0466(18) -0.0020(12) 0.0163(13) -0.0037(11) 
C2 0.0228(13) 0.0129(13) 0.0326(15) -0.0011(10) 0.0095(11) -0.0045(10) 
C3 0.0296(15) 0.0115(13) 0.0588(19) -0.0015(12) 0.0227(14) -0.0042(11) 
C4 0.0261(14) 0.0149(14) 0.0606(19) -0.0001(12) 0.0209(14) -0.0010(11) 
C5 0.0235(13) 0.0154(13) 0.0249(14) 0.0004(10) 0.0082(11) -0.0050(10) 
C6 0.0301(15) 0.0122(13) 0.0459(17) -0.0027(11) 0.0198(13) -0.0050(11) 
C7 0.0183(14) 0.0157(13) 0.0263(15) 0.0019(11) 0.0073(12) -0.0043(11) 
C8 0.0222(14) 0.0142(14) 0.0257(15) -0.0016(11) 0.0043(11) -0.0040(11) 
C9 0.0234(14) 0.0145(13) 0.0353(16) -0.0011(11) 0.0138(12) -0.0049(10) 
C10 0.0253(14) 0.0164(14) 0.0334(15) -0.0006(11) 0.0130(12) -0.0055(10) 
C11 0.0213(13) 0.0144(13) 0.0331(15) -0.0019(11) 0.0108(11) -0.0044(10) 
C12 0.0258(15) 0.0172(14) 0.0492(18) -0.0035(12) 0.0192(16) -0.0069(11) 
C13 0.0338(16) 0.0108(13) 0.0572(19) 0.0007(12) 0.0220(15) -0.0019(11) 
C14 0.0273(14) 0.0147(13) 0.0503(18) -0.0034(12) 0.0190(13) -0.0020(11) 
C15 0.0229(13) 0.0206(14) 0.0319(15) -0.0024(11) 0.0114(11) -0.0065(11) 
C16 0.0219(13) 0.0155(13) 0.0231(14) -0.0014(10) 0.0056(11) -0.0055(10) 
C17 0.0237(14) 0.0131(13) 0.0364(15) -0.0030(11) 0.0123(12) -0.0044(11) 
C18 0.0200(13) 0.0192(14) 0.0310(15) -0.0025(11) 0.0083(11) -0.0015(10) 
C19 0.0253(16) 0.0197(15) 0.0308(16) -0.0009(14) 0.0073(14) -0.0014(11) 
C20 0.0343(15) 0.0172(14) 0.0378(16) 0.0006(11) 0.0113(13) 0.0045(11) 
C21 0.0244(14) 0.0304(16) 0.0347(16) -0.0041(12) 0.0096(12) 0.0056(11) 
C22 0.0223(14) 0.0295(15) 0.0372(16) -0.0029(13) 0.0126(12) -0.0027(12) 
C23 0.0255(14) 0.0197(14) 0.0337(15) -0.0020(11) 0.0110(12) -0.0022(11) 
C24 0.0371(17) 0.0128(13) 0.0345(17) 0.0004(11) 0.0123(13) -0.0039(11) 
C25 0.0401(19) 0.0220(15) 0.0429(18) 0.0015(13) 0.0145(17) -0.0119(12) 
C26 0.0275(15) 0.0166(15) 0.0347(16) -0.0040(11) 0.0153(12) -0.0047(11) 
O1M 0.0265(11) 0.0102(9) 0.0398(11) 0.0007(8) 0.0166(10) -0.0017(7) 
O2M 0.0242(9) 0.0158(9) 0.0481(12) 0.0006(8) 0.0188(9) -0.0012(7) 
O3M 0.0327(11) 0.0125(9) 0.0487(17) 0.0004(8) 0.0191(10) -0.0018(8) 
O4M 0.0276(10) 0.0113(10) 0.0608(13) 0.0020(8) 0.0239(10) -0.0015(7) 
N1M 0.0217(12) 0.0098(11) 0.0360(16) -0.0012(9) 0.0122(10) -0.0036(9) 
N2M 0.0260(12) 0.0119(12) 0.0250(14) 0.0001(9) 0.0091(9) -0.0009(9) 
N3M 0.0225(11) 0.0129(11) 0.0362(13) 0.0026(9) 0.0158(10) -0.0022(8) 
N4M 0.0193(11) 0.0128(11) 0.0537(15) -0.0005(10) 0.0164(10) 0.0011(9) 
C1M 0.0225(14) 0.0179(14) 0.0465(17) 0.0031(12) 0.0161(13) -0.0016(11) 
C2M 0.0232(13) 0.0146(13) 0.0341(15) 0.0021(11) 0.0115(12) -0.0011(10) 
C3M 0.0295(15) 0.0131(13) 0.065(2) 0.0011(12) 0.0245(14) -0.0021(11) 
C4M 0.0274(15) 0.0152(14) 0.067(2) 0.0013(13) 0.0243(14) -0.0034(11) 
C5M 0.0254(14) 0.0148(13) 0.0300(15) -0.0015(10) 0.0112(11) -0.0003(10) 
C6M 0.0296(15) 0.0127(13) 0.0461(17) 0.0015(11) 0.0181(13) -0.0013(11) 
C7M 0.0174(14) 0.0150(13) 0.0251(15) -0.0012(11) 0.0062(11) -0.0021(11) 
C8M 0.0225(14) 0.0141(14) 0.0253(15) 0.0023(11) 0.0057(11) -0.0020(11) 
C9M 0.0222(13) 0.0153(13) 0.0314(15) 0.0018(10) 0.0107(11) -0.0012(10) 
C10M 0.0220(13) 0.0187(14) 0.0323(15) -0.0003(11) 0.0102(11) -0.0001(10) 
C11M 0.0186(13) 0.0181(13) 0.0295(15) 0.0023(11) 0.0086(11) -0.0002(10) 
C12M 0.0258(15) 0.0157(14) 0.0498(18) 0.0041(12) 0.0197(14) 0.0028(11) 
C13M 0.0321(16) 0.0133(13) 0.0539(19) 0.0010(12) 0.0190(14) -0.0034(11) 
C14M 0.0257(14) 0.0160(13) 0.0505(18) 0.0024(12) 0.0182(13) -0.0032(11) 
C15M 0.0196(13) 0.0210(14) 0.0319(15) 0.0023(11) 0.0099(11) 0.0007(10) 
C16M 0.0204(13) 0.0154(13) 0.0234(14) 0.0009(10) 0.0039(11) -0.0008(10) 
C17M 0.0230(13) 0.0146(13) 0.0322(15) 0.0027(10) 0.0132(11) -0.0006(11) 
C18M 0.0213(13) 0.0195(14) 0.0287(15) 0.0037(11) 0.0078(11) -0.0041(11) 
C19M 0.0274(16) 0.0188(15) 0.0293(16) 0.0030(14) 0.0075(14) -0.0031(12) 
C20M 0.0318(15) 0.0176(13) 0.0339(16) 0.0000(11) 0.0088(12) -0.0099(11) 
C21M 0.0271(15) 0.0302(16) 0.0355(16) 0.0053(12) 0.0085(12) -0.0125(12) 
C22M 0.0224(14) 0.0297(16) 0.0347(16) 0.0024(12) 0.0108(12) -0.0035(11) 
C23M 0.0236(14) 0.0201(14) 0.0331(15) 0.0036(11) 0.0108(12) -0.0016(11) 
C24M 0.0400(17) 0.0110(13) 0.0350(17) -0.0010(11) 0.0118(13) -0.0001(11) 
C25M 0.0368(18) 0.0234(15) 0.0461(18) -0.0023(13) 0.0139(18) 0.0059(12) 
C26M 0.0300(15) 0.0162(14) 0.0343(16) 0.0027(11) 0.0161(12) -0.0015(11) 
O31 0.0284(11) 0.0095(10) 0.0506(12) -0.0012(8) 0.0194(10) -0.0041(8) 
O32 0.0239(10) 0.0176(10) 0.0481(12) -0.0033(10) 0.0207(9) -0.0072(8) 
O33 0.0407(12) 0.0158(10) 0.0583(13) -0.0050(9) 0.0208(10) -0.0049(8) 
O34 0.0253(10) 0.0118(10) 0.0529(12) -0.0006(8) 0.0181(9) -0.0038(7) 
N31 0.0232(12) 0.0085(11) 0.0475(14) -0.0017(9) 0.0182(10) -0.0049(8) 
N32 0.0261(12) 0.0138(11) 0.0313(13) 0.0005(9) 0.0121(10) -0.0057(9) 
N33 0.0238(13) 0.0123(11) 0.0418(14) -0.0019(9) 0.0138(11) -0.0016(9) 
N34 0.0198(12) 0.0124(11) 0.0496(16) -0.0011(10) 0.0162(11) -0.0057(9) 
C31 0.0190(13) 0.0163(13) 0.0371(16) 0.0013(11) 0.0106(12) -0.0031(10) 
C32 0.0223(14) 0.0137(13) 0.0379(16) -0.0020(11) 0.0093(12) -0.0041(10) 
C33 0.0312(16) 0.0115(13) 0.0585(19) -0.0022(12) 0.0235(16) -0.0045(11) 
C34 0.0280(15) 0.0144(14) 0.0510(18) -0.0025(12) 0.0220(14) -0.0033(11) 
C35 0.0240(13) 0.0156(13) 0.0315(15) -0.0021(10) 0.0109(11) -0.0050(10) 
C36 0.0269(14) 0.0126(13) 0.0397(16) -0.0015(11) 0.0157(12) -0.0057(10) 
C37 0.0205(13) 0.0148(13) 0.0293(15) 0.0011(10) 0.0100(11) -0.0043(10) 
C38 0.0236(14) 0.0149(14) 0.0302(15) 0.0000(11) 0.0088(11) -0.0033(10) 
C39 0.0244(14) 0.0164(14) 0.0347(16) -0.0007(11) 0.0155(12) -0.0047(10) 
C40 0.0257(15) 0.0166(14) 0.0294(15) -0.0006(11) 0.0124(12) -0.0056(11) 
C41 0.0179(15) 0.0165(14) 0.0272(14) 0.0012(11) 0.0071(13) -0.0027(10) 
C42 0.0235(15) 0.0155(13) 0.0333(16) 0.0019(11) 0.0112(13) -0.0048(11) 
C43 0.0312(15) 0.0109(13) 0.0416(18) -0.0002(11) 0.0160(13) -0.0012(11) 
C44 0.0246(14) 0.0157(13) 0.0384(17) -0.0005(11) 0.0160(12) -0.0006(11) 
C45 0.0226(13) 0.0186(14) 0.0273(16) 0.0020(11) 0.0103(11) -0.0042(11) 
C46 0.0208(13) 0.0158(13) 0.0215(14) 0.0001(10) 0.0049(11) -0.0054(10) 
C47 0.0246(14) 0.0129(13) 0.036(2) -0.0038(11) 0.0129(13) -0.0036(11) 
C48 0.0224(14) 0.0226(14) 0.0363(16) -0.0028(11) 0.0093(12) 0.0011(11) 
C49 0.0308(16) 0.0230(15) 0.0377(17) -0.0025(12) 0.0068(13) 0.0000(12) 
C50 0.0465(18) 0.0207(15) 0.0444(18) -0.0023(12) 0.0103(14) 0.0097(13) 
C51 0.0413(18) 0.0392(19) 0.043(2) -0.0074(17) 0.0094(15) 0.0170(15) 
C52 0.0267(15) 0.0403(18) 0.0453(18) -0.0047(14) 0.0132(13) 0.0046(13) 
C53 0.0253(14) 0.0281(15) 0.0367(16) -0.0052(12) 0.0099(12) 0.0000(11) 
C54 0.069(2) 0.0132(14) 0.040(2) -0.0025(12) 0.0181(17) -0.0039(14) 
C55 0.067(2) 0.0283(16) 0.0495(19) -0.0069(14) 0.0247(17) -0.0250(15) 
C56 0.0271(15) 0.0158(14) 0.0341(16) -0.0026(11) 0.0134(12) -0.0062(11) 
O31M 0.0312(11) 0.0094(10) 0.0516(12) 0.0022(8) 0.0226(11) -0.0020(8) 
O32M 0.0248(11) 0.0169(10) 0.0471(12) 0.0028(10) 0.0202(10) 0.0003(8) 
O33M 0.0404(12) 0.0146(10) 0.0586(13) 0.0039(8) 0.0202(10) -0.0016(8) 
O34M 0.0243(10) 0.0118(10) 0.0553(12) -0.0005(8) 0.0180(9) -0.0018(7) 
N31M 0.0229(12) 0.0099(11) 0.0451(14) 0.0016(9) 0.0169(10) -0.0009(8) 
N32M 0.0250(12) 0.0136(11) 0.0302(12) -0.0014(9) 0.0118(10) -0.0011(9) 
N33M 0.0218(12) 0.0127(11) 0.0392(14) 0.0025(9) 0.0130(11) -0.0031(9) 
N34M 0.0205(12) 0.0104(11) 0.0541(16) 0.0013(10) 0.0182(11) 0.0007(9) 
C31M 0.0170(13) 0.0180(14) 0.0348(15) -0.0003(11) 0.0097(12) -0.0019(10) 
C32M 0.0241(14) 0.0139(13) 0.0378(16) 0.0022(11) 0.0103(12) -0.0018(10) 
C33M 0.0306(16) 0.0131(13) 0.0535(18) 0.0010(12) 0.0226(16) -0.0021(11) 
C34M 0.0290(15) 0.0137(14) 0.0505(18) 0.0017(12) 0.0221(14) -0.0024(11) 
C35M 0.0219(13) 0.0170(13) 0.0338(15) -0.0001(11) 0.0105(11) -0.0009(10) 
C36M 0.0258(14) 0.0142(13) 0.0378(16) 0.0022(11) 0.0141(12) -0.0002(11) 
C37M 0.0191(13) 0.0149(13) 0.0301(15) -0.0004(10) 0.0095(11) -0.0029(10) 
C38M 0.0239(14) 0.0143(14) 0.0300(15) 0.0023(11) 0.0078(11) -0.0024(10) 
C39M 0.0221(13) 0.0157(13) 0.0344(16) 0.0015(11) 0.0140(12) -0.0009(10) 
C40M 0.0226(14) 0.0172(14) 0.0290(15) -0.0002(11) 0.0105(12) -0.0003(10) 
C41M 0.0178(15) 0.0166(14) 0.0296(15) -0.0005(11) 0.0085(12) -0.0021(10) 
C42M 0.0224(14) 0.0159(13) 0.0354(16) 0.0006(11) 0.0118(12) 0.0023(11) 
C43M 0.0307(15) 0.0118(13) 0.0419(18) 0.0014(11) 0.0164(13) -0.0035(11) 
C44M 0.0225(13) 0.0161(13) 0.0394(18) -0.0007(11) 0.0157(12) -0.0045(11) 
C45M 0.0202(13) 0.0205(14) 0.0307(17) -0.0015(11) 0.0116(11) -0.0012(11) 
C46M 0.0203(13) 0.0151(13) 0.0253(14) -0.0001(10) 0.0057(11) 0.0004(10) 
C47M 0.0212(14) 0.0146(14) 0.030(2) 0.0029(11) 0.0112(12) -0.0018(11) 
C48M 0.0220(14) 0.0261(15) 0.0291(15) 0.0053(11) 0.0055(12) -0.0074(11) 
C49M 0.0313(16) 0.0225(15) 0.0353(16) 0.0039(12) 0.0059(13) -0.0044(12) 
C50M 0.0421(17) 0.0232(15) 0.0399(17) 0.0015(12) 0.0074(14) -0.0166(13) 
C51M 0.0407(18) 0.041(2) 0.048(2) 0.0061(16) 0.0121(15) -0.0217(15) 
C52M 0.0246(15) 0.0408(18) 0.0444(18) 0.0048(13) 0.0122(13) -0.0091(12) 
C53M 0.0207(14) 0.0295(15) 0.0388(17) 0.0049(12) 0.0090(12) -0.0054(11) 
C54M 0.069(2) 0.0132(14) 0.038(2) 0.0007(12) 0.0154(16) -0.0006(14) 
C55M 0.070(2) 0.0268(16) 0.051(2) 0.0055(14) 0.0293(17) 0.0197(15) 
C56M 0.0284(15) 0.0148(14) 0.0328(15) 0.0037(11) 0.0121(12) 0.0002(11) 
O1S 0.0235(11) 0.0108(9) 0.0398(11) -0.0001(8) 0.0141(9) -0.0042(7) 
O2S 0.0244(9) 0.0157(9) 0.0514(12) -0.0013(8) 0.0209(9) -0.0061(7) 
O3S 0.0302(10) 0.0143(9) 0.0469(18) -0.0008(8) 0.0185(10) -0.0046(8) 
O4S 0.0270(10) 0.0120(10) 0.0567(13) -0.0013(8) 0.0217(10) -0.0037(7) 
N1S 0.0222(12) 0.0092(11) 0.0355(16) 0.0001(9) 0.0129(10) -0.0043(9) 
N2S 0.0257(12) 0.0124(12) 0.0270(14) -0.0005(9) 0.0094(9) -0.0065(9) 
N3S 0.0241(12) 0.0104(11) 0.0400(14) -0.0019(9) 0.0149(10) -0.0031(8) 
N4S 0.0211(12) 0.0132(11) 0.0483(14) 0.0009(9) 0.0146(10) -0.0064(9) 
C1S 0.0233(14) 0.0169(14) 0.0466(18) -0.0020(12) 0.0163(13) -0.0037(11) 
C2S 0.0228(13) 0.0129(13) 0.0326(15) -0.0011(10) 0.0095(11) -0.0045(10) 
C3S 0.0296(15) 0.0115(13) 0.0588(19) -0.0015(12) 0.0227(14) -0.0042(11) 
C4S 0.0261(14) 0.0149(14) 0.0606(19) -0.0001(12) 0.0209(14) -0.0010(11) 
C5S 0.0235(13) 0.0154(13) 0.0249(14) 0.0004(10) 0.0082(11) -0.0050(10) 
C6S 0.0301(15) 0.0122(13) 0.0459(17) -0.0027(11) 0.0198(13) -0.0050(11) 
C7S 0.0183(14) 0.0157(13) 0.0263(15) 0.0019(11) 0.0073(12) -0.0043(11) 
C8S 0.0222(14) 0.0142(14) 0.0257(15) -0.0016(11) 0.0043(11) -0.0040(11) 
C9S 0.0234(14) 0.0145(13) 0.0353(16) -0.0011(11) 0.0138(12) -0.0049(10) 
C10S 0.0253(14) 0.0164(14) 0.0334(15) -0.0006(11) 0.0130(12) -0.0055(10) 
C11S 0.0213(13) 0.0144(13) 0.0331(15) -0.0019(11) 0.0108(11) -0.0044(10) 
C12S 0.0258(15) 0.0172(14) 0.0492(18) -0.0035(12) 0.0192(16) -0.0069(11) 
C13S 0.0338(16) 0.0108(13) 0.0572(19) 0.0007(12) 0.0220(15) -0.0019(11) 
C14S 0.0273(14) 0.0147(13) 0.0503(18) -0.0034(12) 0.0190(13) -0.0020(11) 
C15S 0.0229(13) 0.0206(14) 0.0319(15) -0.0024(11) 0.0114(11) -0.0065(11) 
C16S 0.0219(13) 0.0155(13) 0.0231(14) -0.0014(10) 0.0056(11) -0.0055(10) 
C17S 0.0237(14) 0.0131(13) 0.0364(15) -0.0030(11) 0.0123(12) -0.0044(11) 
C18S 0.0200(13) 0.0192(14) 0.0310(15) -0.0025(11) 0.0083(11) -0.0015(10) 
C19S 0.0253(16) 0.0197(15) 0.0308(16) -0.0009(14) 0.0073(14) -0.0014(11) 
C20S 0.0343(15) 0.0172(14) 0.0378(16) 0.0006(11) 0.0113(13) 0.0045(11) 
C21S 0.0244(14) 0.0304(16) 0.0347(16) -0.0041(12) 0.0096(12) 0.0056(11) 
C22S 0.0223(14) 0.0295(15) 0.0372(16) -0.0029(13) 0.0126(12) -0.0027(12) 
C23S 0.0255(14) 0.0197(14) 0.0337(15) -0.0020(11) 0.0110(12) -0.0022(11) 
C24S 0.0371(17) 0.0128(13) 0.0345(17) 0.0004(11) 0.0123(13) -0.0039(11) 
C25S 0.0401(19) 0.0220(15) 0.0429(18) 0.0015(13) 0.0145(17) -0.0119(12) 
C26S 0.0275(15) 0.0166(15) 0.0347(16) -0.0040(11) 0.0153(12) -0.0047(11) 
O1A 0.0265(11) 0.0102(9) 0.0398(11) 0.0007(8) 0.0166(10) -0.0017(7) 
O2A 0.0242(9) 0.0158(9) 0.0481(12) 0.0006(8) 0.0188(9) -0.0012(7) 
O3A 0.0327(11) 0.0125(9) 0.0487(17) 0.0004(8) 0.0191(10) -0.0018(8) 
O4A 0.0276(10) 0.0113(10) 0.0608(13) 0.0020(8) 0.0239(10) -0.0015(7) 
N1A 0.0217(12) 0.0098(11) 0.0360(16) -0.0012(9) 0.0122(10) -0.0036(9) 
N2A 0.0260(12) 0.0119(12) 0.0250(14) 0.0001(9) 0.0091(9) -0.0009(9) 
N3A 0.0225(11) 0.0129(11) 0.0362(13) 0.0026(9) 0.0158(10) -0.0022(8) 
N4A 0.0193(11) 0.0128(11) 0.0537(15) -0.0005(10) 0.0164(10) 0.0011(9) 
C1A 0.0225(14) 0.0179(14) 0.0465(17) 0.0031(12) 0.0161(13) -0.0016(11) 
C2A 0.0232(13) 0.0146(13) 0.0341(15) 0.0021(11) 0.0115(12) -0.0011(10) 
C3A 0.0295(15) 0.0131(13) 0.065(2) 0.0011(12) 0.0245(14) -0.0021(11) 
C4A 0.0274(15) 0.0152(14) 0.067(2) 0.0013(13) 0.0243(14) -0.0034(11) 
C5A 0.0254(14) 0.0148(13) 0.0300(15) -0.0015(10) 0.0112(11) -0.0003(10) 
C6A 0.0296(15) 0.0127(13) 0.0461(17) 0.0015(11) 0.0181(13) -0.0013(11) 
C7A 0.0174(14) 0.0150(13) 0.0251(15) -0.0012(11) 0.0062(11) -0.0021(11) 
C8A 0.0225(14) 0.0141(14) 0.0253(15) 0.0023(11) 0.0057(11) -0.0020(11) 
C9A 0.0222(13) 0.0153(13) 0.0314(15) 0.0018(10) 0.0107(11) -0.0012(10) 
C10A 0.0220(13) 0.0187(14) 0.0323(15) -0.0003(11) 0.0102(11) -0.0001(10) 
C11A 0.0186(13) 0.0181(13) 0.0295(15) 0.0023(11) 0.0086(11) -0.0002(10) 
C12A 0.0258(15) 0.0157(14) 0.0498(18) 0.0041(12) 0.0197(14) 0.0028(11) 
C13A 0.0321(16) 0.0133(13) 0.0539(19) 0.0010(12) 0.0190(14) -0.0034(11) 
C14A 0.0257(14) 0.0160(13) 0.0505(18) 0.0024(12) 0.0182(13) -0.0032(11) 
C15A 0.0196(13) 0.0210(14) 0.0319(15) 0.0023(11) 0.0099(11) 0.0007(10) 
C16A 0.0204(13) 0.0154(13) 0.0234(14) 0.0009(10) 0.0039(11) -0.0008(10) 
C17A 0.0230(13) 0.0146(13) 0.0322(15) 0.0027(10) 0.0132(11) -0.0006(11) 
C18A 0.0213(13) 0.0195(14) 0.0287(15) 0.0037(11) 0.0078(11) -0.0041(11) 
C19A 0.0274(16) 0.0188(15) 0.0293(16) 0.0030(14) 0.0075(14) -0.0031(12) 
C20A 0.0318(15) 0.0176(13) 0.0339(16) 0.0000(11) 0.0088(12) -0.0099(11) 
C21A 0.0271(15) 0.0302(16) 0.0355(16) 0.0053(12) 0.0085(12) -0.0125(12) 
C22A 0.0224(14) 0.0297(16) 0.0347(16) 0.0024(12) 0.0108(12) -0.0035(11) 
C23A 0.0236(14) 0.0201(14) 0.0331(15) 0.0036(11) 0.0108(12) -0.0016(11) 
C24A 0.0400(17) 0.0110(13) 0.0350(17) -0.0010(11) 0.0118(13) -0.0001(11) 
C25A 0.0368(18) 0.0234(15) 0.0461(18) -0.0023(13) 0.0139(18) 0.0059(12) 
C26A 0.0300(15) 0.0162(14) 0.0343(16) 0.0027(11) 0.0161(12) -0.0015(11) 
O31S 0.0284(11) 0.0095(10) 0.0506(12) -0.0012(8) 0.0194(10) -0.0041(8) 
O32S 0.0239(10) 0.0176(10) 0.0481(12) -0.0033(10) 0.0207(9) -0.0072(8) 
O33S 0.0407(12) 0.0158(10) 0.0583(13) -0.0050(9) 0.0208(10) -0.0049(8) 
O34S 0.0253(10) 0.0118(10) 0.0529(12) -0.0006(8) 0.0181(9) -0.0038(7) 
N31S 0.0232(12) 0.0085(11) 0.0475(14) -0.0017(9) 0.0182(10) -0.0049(8) 
N32S 0.0261(12) 0.0138(11) 0.0313(13) 0.0005(9) 0.0121(10) -0.0057(9) 
N33S 0.0238(13) 0.0123(11) 0.0418(14) -0.0019(9) 0.0138(11) -0.0016(9) 
N34S 0.0198(12) 0.0124(11) 0.0496(16) -0.0011(10) 0.0162(11) -0.0057(9) 
C31S 0.0190(13) 0.0163(13) 0.0371(16) 0.0013(11) 0.0106(12) -0.0031(10) 
C32S 0.0223(14) 0.0137(13) 0.0379(16) -0.0020(11) 0.0093(12) -0.0041(10) 
C33S 0.0312(16) 0.0115(13) 0.0585(19) -0.0022(12) 0.0235(16) -0.0045(11) 
C34S 0.0280(15) 0.0144(14) 0.0510(18) -0.0025(12) 0.0220(14) -0.0033(11) 
C35S 0.0240(13) 0.0156(13) 0.0315(15) -0.0021(10) 0.0109(11) -0.0050(10) 
C36S 0.0269(14) 0.0126(13) 0.0397(16) -0.0015(11) 0.0157(12) -0.0057(10) 
C37S 0.0205(13) 0.0148(13) 0.0293(15) 0.0011(10) 0.0100(11) -0.0043(10) 
C38S 0.0236(14) 0.0149(14) 0.0302(15) 0.0000(11) 0.0088(11) -0.0033(10) 
C39S 0.0244(14) 0.0164(14) 0.0347(16) -0.0007(11) 0.0155(12) -0.0047(10) 
C40S 0.0257(15) 0.0166(14) 0.0294(15) -0.0006(11) 0.0124(12) -0.0056(11) 
C41S 0.0179(15) 0.0165(14) 0.0272(14) 0.0012(11) 0.0071(13) -0.0027(10) 
C42S 0.0235(15) 0.0155(13) 0.0333(16) 0.0019(11) 0.0112(13) -0.0048(11) 
C43S 0.0312(15) 0.0109(13) 0.0416(18) -0.0002(11) 0.0160(13) -0.0012(11) 
C44S 0.0246(14) 0.0157(13) 0.0384(17) -0.0005(11) 0.0160(12) -0.0006(11) 
C45S 0.0226(13) 0.0186(14) 0.0273(16) 0.0020(11) 0.0103(11) -0.0042(11) 
C46S 0.0208(13) 0.0158(13) 0.0215(14) 0.0001(10) 0.0049(11) -0.0054(10) 
C47S 0.0246(14) 0.0129(13) 0.036(2) -0.0038(11) 0.0129(13) -0.0036(11) 
C48S 0.0224(14) 0.0226(14) 0.0363(16) -0.0028(11) 0.0093(12) 0.0011(11) 
C49S 0.0308(16) 0.0230(15) 0.0377(17) -0.0025(12) 0.0068(13) 0.0000(12) 
C50S 0.0465(18) 0.0207(15) 0.0444(18) -0.0023(12) 0.0103(14) 0.0097(13) 
C51S 0.0413(18) 0.0392(19) 0.043(2) -0.0074(17) 0.0094(15) 0.0170(15) 
C52S 0.0267(15) 0.0403(18) 0.0453(18) -0.0047(14) 0.0132(13) 0.0046(13) 
C53S 0.0253(14) 0.0281(15) 0.0367(16) -0.0052(12) 0.0099(12) 0.0000(11) 
C54S 0.069(2) 0.0132(14) 0.040(2) -0.0025(12) 0.0181(17) -0.0039(14) 
C55S 0.067(2) 0.0283(16) 0.0495(19) -0.0069(14) 0.0247(17) -0.0250(15) 
C56S 0.0271(15) 0.0158(14) 0.0341(16) -0.0026(11) 0.0134(12) -0.0062(11) 
O31B 0.0312(11) 0.0094(10) 0.0516(12) 0.0022(8) 0.0226(11) -0.0020(8) 
O32B 0.0248(11) 0.0169(10) 0.0471(12) 0.0028(10) 0.0202(10) 0.0003(8) 
O33B 0.0404(12) 0.0146(10) 0.0586(13) 0.0039(8) 0.0202(10) -0.0016(8) 
O34B 0.0243(10) 0.0118(10) 0.0553(12) -0.0005(8) 0.0180(9) -0.0018(7) 
N31B 0.0229(12) 0.0099(11) 0.0451(14) 0.0016(9) 0.0169(10) -0.0009(8) 
N32B 0.0250(12) 0.0136(11) 0.0302(12) -0.0014(9) 0.0118(10) -0.0011(9) 
N33B 0.0218(12) 0.0127(11) 0.0392(14) 0.0025(9) 0.0130(11) -0.0031(9) 
N34B 0.0205(12) 0.0104(11) 0.0541(16) 0.0013(10) 0.0182(11) 0.0007(9) 
C31B 0.0170(13) 0.0180(14) 0.0348(15) -0.0003(11) 0.0097(12) -0.0019(10) 
C32B 0.0241(14) 0.0139(13) 0.0378(16) 0.0022(11) 0.0103(12) -0.0018(10) 
C33B 0.0306(16) 0.0131(13) 0.0535(18) 0.0010(12) 0.0226(16) -0.0021(11) 
C34B 0.0290(15) 0.0137(14) 0.0505(18) 0.0017(12) 0.0221(14) -0.0024(11) 
C35B 0.0219(13) 0.0170(13) 0.0338(15) -0.0001(11) 0.0105(11) -0.0009(10) 
C36B 0.0258(14) 0.0142(13) 0.0378(16) 0.0022(11) 0.0141(12) -0.0002(11) 
C37B 0.0191(13) 0.0149(13) 0.0301(15) -0.0004(10) 0.0095(11) -0.0029(10) 
C38B 0.0239(14) 0.0143(14) 0.0300(15) 0.0023(11) 0.0078(11) -0.0024(10) 
C39B 0.0221(13) 0.0157(13) 0.0344(16) 0.0015(11) 0.0140(12) -0.0009(10) 
C40B 0.0226(14) 0.0172(14) 0.0290(15) -0.0002(11) 0.0105(12) -0.0003(10) 
C41B 0.0178(15) 0.0166(14) 0.0296(15) -0.0005(11) 0.0085(12) -0.0021(10) 
C42B 0.0224(14) 0.0159(13) 0.0354(16) 0.0006(11) 0.0118(12) 0.0023(11) 
C43B 0.0307(15) 0.0118(13) 0.0419(18) 0.0014(11) 0.0164(13) -0.0035(11) 
C44B 0.0225(13) 0.0161(13) 0.0394(18) -0.0007(11) 0.0157(12) -0.0045(11) 
C45B 0.0202(13) 0.0205(14) 0.0307(17) -0.0015(11) 0.0116(11) -0.0012(11) 
C46B 0.0203(13) 0.0151(13) 0.0253(14) -0.0001(10) 0.0057(11) 0.0004(10) 
C47B 0.0212(14) 0.0146(14) 0.030(2) 0.0029(11) 0.0112(12) -0.0018(11) 
C48B 0.0220(14) 0.0261(15) 0.0291(15) 0.0053(11) 0.0055(12) -0.0074(11) 
C49B 0.0313(16) 0.0225(15) 0.0353(16) 0.0039(12) 0.0059(13) -0.0044(12) 
C50B 0.0421(17) 0.0232(15) 0.0399(17) 0.0015(12) 0.0074(14) -0.0166(13) 
C51B 0.0407(18) 0.041(2) 0.048(2) 0.0061(16) 0.0121(15) -0.0217(15) 
C52B 0.0246(15) 0.0408(18) 0.0444(18) 0.0048(13) 0.0122(13) -0.0091(12) 
C53B 0.0207(14) 0.0295(15) 0.0388(17) 0.0049(12) 0.0090(12) -0.0054(11) 
C54B 0.069(2) 0.0132(14) 0.038(2) 0.0007(12) 0.0154(16) -0.0006(14) 
C55B 0.070(2) 0.0268(16) 0.051(2) 0.0055(14) 0.0293(17) 0.0197(15) 
C56B 0.0284(15) 0.0148(14) 0.0328(15) 0.0037(11) 0.0121(12) 0.0002(11) 
 
_geom_special_details 
; 
 All esds (except the esd in the dihedral angle between two l.s. planes) 
 are estimated using the full covariance matrix.  The cell esds are taken 
 into account individually in the estimation of esds in distances, angles 
 and torsion angles; correlations between esds in cell parameters are only 
 used when they are defined by crystal symmetry.  An approximate (isotropic) 
 treatment of cell esds is used for estimating esds involving l.s. planes. 
; 
 
loop_ 
 _geom_bond_atom_site_label_1 
 _geom_bond_atom_site_label_2 
 _geom_bond_distance 
 _geom_bond_site_symmetry_2 
 _geom_bond_publ_flag 
O1 C8 1.265(2) . ? 
O2 C17 1.240(2) . ? 
O3 C19 1.379(2) . ? 
O3 C24 1.435(2) . ? 
O4 C26 1.241(2) . ? 
N1 N2 1.310(2) . ? 
N1 C5 1.409(2) . ? 
N1 H1 0.8800 . ? 
N2 C7 1.349(2) . ? 
N3 C17 1.357(2) . ? 
N3 C18 1.413(2) . ? 
N3 H3 0.8800 . ? 
N4 C26 1.349(3) . ? 
N4 H4A 0.8800 . ? 
N4 H4B 0.8800 . ? 
C1 C6 1.392(3) . ? 
C1 C2 1.396(3) . ? 
C1 H1A 0.9500 . ? 
C2 C3 1.388(3) . ? 
C2 C26 1.505(2) . ? 
C3 C4 1.384(3) . ? 
C3 H3A 0.9500 . ? 
C4 C5 1.387(3) . ? 
C4 H4 0.9500 . ? 
C5 C6 1.396(3) . ? 
C6 H6 0.9500 . ? 
C7 C8 1.455(3) . ? 
C7 C16 1.458(3) . ? 
C8 C9 1.472(2) . ? 
C9 C10 1.354(2) . ? 
C9 C17 1.514(3) . ? 
C10 C11 1.433(3) . ? 
C10 H10 0.9500 . ? 
C11 C12 1.411(3) . ? 
C11 C16 1.415(2) . ? 
C12 C13 1.369(3) . ? 
C12 H12 0.9500 . ? 
C13 C14 1.404(3) . ? 
C13 H13 0.9500 . ? 
C14 C15 1.378(3) . ? 
C14 H14 0.9500 . ? 
C15 C16 1.401(3) . ? 
C15 H15 0.9500 . ? 
C18 C23 1.388(3) . ? 
C18 C19 1.410(3) . ? 
C19 C20 1.387(3) . ? 
C20 C21 1.394(3) . ? 
C20 H20 0.9500 . ? 
C21 C22 1.382(3) . ? 
C21 H21 0.9500 . ? 
C22 C23 1.394(3) . ? 
C22 H22 0.9500 . ? 
C23 H23 0.9500 . ? 
C24 C25 1.519(3) . ? 
C24 H24A 0.9900 . ? 
C24 H24B 0.9900 . ? 
C25 H25A 0.9800 . ? 
C25 H25B 0.9800 . ? 
C25 H25C 0.9800 . ? 
O1M C8M 1.265(2) . ? 
O2M C17M 1.238(2) . ? 
O3M C19M 1.377(2) . ? 
O3M C24M 1.433(2) . ? 
O4M C26M 1.241(2) . ? 
N1M N2M 1.311(2) . ? 
N1M C5M 1.408(2) . ? 
N1M H1M 0.8800 . ? 
N2M C7M 1.349(2) . ? 
N3M C17M 1.356(2) . ? 
N3M C18M 1.414(2) . ? 
N3M H3M 0.8800 . ? 
N4M C26M 1.349(2) . ? 
N4M H4M1 0.8800 . ? 
N4M H4M2 0.8800 . ? 
C1M C6M 1.390(3) . ? 
C1M C2M 1.395(3) . ? 
C1M H1M1 0.9500 . ? 
C2M C3M 1.389(3) . ? 
C2M C26M 1.505(3) . ? 
C3M C4M 1.382(3) . ? 
C3M H3M1 0.9500 . ? 
C4M C5M 1.386(3) . ? 
C4M H4M 0.9500 . ? 
C5M C6M 1.396(3) . ? 
C6M H6M 0.9500 . ? 
C7M C8M 1.456(3) . ? 
C7M C16M 1.457(2) . ? 
C8M C9M 1.472(3) . ? 
C9M C10M 1.353(2) . ? 
C9M C17M 1.514(3) . ? 
C10M C11M 1.435(3) . ? 
C10M H10M 0.9500 . ? 
C11M C12M 1.410(3) . ? 
C11M C16M 1.413(3) . ? 
C12M C13M 1.371(3) . ? 
C12M H12M 0.9500 . ? 
C13M C14M 1.401(3) . ? 
C13M H13M 0.9500 . ? 
C14M C15M 1.380(3) . ? 
C14M H14M 0.9500 . ? 
C15M C16M 1.402(3) . ? 
C15M H15M 0.9500 . ? 
C18M C23M 1.385(3) . ? 
C18M C19M 1.410(3) . ? 
C19M C20M 1.389(3) . ? 
C20M C21M 1.392(3) . ? 
C20M H20M 0.9500 . ? 
C21M C22M 1.381(3) . ? 
C21M H21M 0.9500 . ? 
C22M C23M 1.397(3) . ? 
C22M H22M 0.9500 . ? 
C23M H23M 0.9500 . ? 
C24M C25M 1.520(3) . ? 
C24M H24C 0.9900 . ? 
C24M H24D 0.9900 . ? 
C25M H25D 0.9800 . ? 
C25M H25E 0.9800 . ? 
C25M H25F 0.9800 . ? 
O31 C38 1.263(2) . ? 
O32 C47 1.237(2) . ? 
O33 C49 1.383(2) . ? 
O33 C54 1.430(3) . ? 
O34 C56 1.240(2) . ? 
N31 N32 1.311(2) . ? 
N31 C35 1.408(2) . ? 
N31 H31 0.8800 . ? 
N32 C37 1.348(2) . ? 
N33 C47 1.357(2) . ? 
N33 C48 1.417(2) . ? 
N33 H33 0.8800 . ? 
N34 C56 1.349(3) . ? 
N34 H34A 0.8800 . ? 
N34 H34B 0.8800 . ? 
C31 C36 1.392(3) . ? 
C31 C32 1.399(3) . ? 
C31 H31A 0.9500 . ? 
C32 C33 1.390(3) . ? 
C32 C56 1.508(2) . ? 
C33 C34 1.385(3) . ? 
C33 H33A 0.9500 . ? 
C34 C35 1.388(3) . ? 
C34 H34 0.9500 . ? 
C35 C36 1.399(3) . ? 
C36 H36 0.9500 . ? 
C37 C38 1.455(3) . ? 
C37 C46 1.458(2) . ? 
C38 C39 1.470(3) . ? 
C39 C40 1.354(3) . ? 
C39 C47 1.512(3) . ? 
C40 C41 1.436(3) . ? 
C40 H40 0.9500 . ? 
C41 C42 1.409(3) . ? 
C41 C46 1.416(3) . ? 
C42 C43 1.370(3) . ? 
C42 H42 0.9500 . ? 
C43 C44 1.404(3) . ? 
C43 H43 0.9500 . ? 
C44 C45 1.378(3) . ? 
C44 H44 0.9500 . ? 
C45 C46 1.400(3) . ? 
C45 H45 0.9500 . ? 
C48 C53 1.388(3) . ? 
C48 C49 1.404(3) . ? 
C49 C50 1.391(3) . ? 
C50 C51 1.394(3) . ? 
C50 H50 0.9500 . ? 
C51 C52 1.378(3) . ? 
C51 H51 0.9500 . ? 
C52 C53 1.393(3) . ? 
C52 H52 0.9500 . ? 
C53 H53 0.9500 . ? 
C54 C55 1.520(3) . ? 
C54 H54A 0.9900 . ? 
C54 H54B 0.9900 . ? 
C55 H55A 0.9800 . ? 
C55 H55B 0.9800 . ? 
C55 H55C 0.9800 . ? 
O31M C38M 1.263(2) . ? 
O32M C47M 1.236(2) . ? 
O33M C49M 1.382(3) . ? 
O33M C54M 1.430(3) . ? 
O34M C56M 1.242(2) . ? 
N31M N32M 1.312(2) . ? 
N31M C35M 1.407(2) . ? 
N31M H31M 0.8800 . ? 
N32M C37M 1.349(2) . ? 
N33M C47M 1.356(2) . ? 
N33M C48M 1.417(2) . ? 
N33M H33M 0.8800 . ? 
N34M C56M 1.348(3) . ? 
N34M H34C 0.8800 . ? 
N34M H34D 0.8800 . ? 
C31M C36M 1.393(3) . ? 
C31M C32M 1.397(3) . ? 
C31M H31B 0.9500 . ? 
C32M C33M 1.393(3) . ? 
C32M C56M 1.505(3) . ? 
C33M C34M 1.384(3) . ? 
C33M H33B 0.9500 . ? 
C34M C35M 1.387(3) . ? 
C34M H34M 0.9500 . ? 
C35M C36M 1.400(3) . ? 
C36M H36M 0.9500 . ? 
C37M C38M 1.457(2) . ? 
C37M C46M 1.457(2) . ? 
C38M C39M 1.470(3) . ? 
C39M C40M 1.355(2) . ? 
C39M C47M 1.514(3) . ? 
C40M C41M 1.438(3) . ? 
C40M H40M 0.9500 . ? 
C41M C42M 1.409(3) . ? 
C41M C46M 1.414(3) . ? 
C42M C43M 1.371(3) . ? 
C42M H42M 0.9500 . ? 
C43M C44M 1.399(3) . ? 
C43M H43M 0.9500 . ? 
C44M C45M 1.379(3) . ? 
C44M H44M 0.9500 . ? 
C45M C46M 1.403(3) . ? 
C45M H45M 0.9500 . ? 
C48M C53M 1.386(3) . ? 
C48M C49M 1.402(3) . ? 
C49M C50M 1.392(3) . ? 
C50M C51M 1.395(3) . ? 
C50M H50M 0.9500 . ? 
C51M C52M 1.378(3) . ? 
C51M H51M 0.9500 . ? 
C52M C53M 1.398(3) . ? 
C52M H52M 0.9500 . ? 
C53M H53M 0.9500 . ? 
C54M C55M 1.518(3) . ? 
C54M H54C 0.9900 . ? 
C54M H54D 0.9900 . ? 
C55M H55D 0.9800 . ? 
C55M H55E 0.9800 . ? 
C55M H55F 0.9800 . ? 
O1S C8S 1.264(3) . ? 
O2S C17S 1.237(4) . ? 
O3S C19S 1.381(3) . ? 
O3S C24S 1.434(4) . ? 
O4S C26S 1.241(4) . ? 
N1S N2S 1.309(4) . ? 
N1S C5S 1.407(3) . ? 
N1S H1S 0.8800 . ? 
N2S C7S 1.350(3) . ? 
N3S C17S 1.358(4) . ? 
N3S C18S 1.414(3) . ? 
N3S H3S 0.8800 . ? 
N4S C26S 1.350(4) . ? 
N4S H4S1 0.8800 . ? 
N4S H4S2 0.8800 . ? 
C1S C6S 1.392(4) . ? 
C1S C2S 1.397(4) . ? 
C1S H1S1 0.9500 . ? 
C2S C3S 1.391(4) . ? 
C2S C26S 1.505(3) . ? 
C3S C4S 1.385(4) . ? 
C3S H3S1 0.9500 . ? 
C4S C5S 1.388(4) . ? 
C4S H4S 0.9500 . ? 
C5S C6S 1.399(4) . ? 
C6S H6S 0.9500 . ? 
C7S C8S 1.454(3) . ? 
C7S C16S 1.459(3) . ? 
C8S C9S 1.473(3) . ? 
C9S C10S 1.352(4) . ? 
C9S C17S 1.516(4) . ? 
C10S C11S 1.436(3) . ? 
C10S H10S 0.9500 . ? 
C11S C12S 1.411(4) . ? 
C11S C16S 1.414(3) . ? 
C12S C13S 1.370(4) . ? 
C12S H12S 0.9500 . ? 
C13S C14S 1.403(4) . ? 
C13S H13S 0.9500 . ? 
C14S C15S 1.379(4) . ? 
C14S H14S 0.9500 . ? 
C15S C16S 1.403(4) . ? 
C15S H15S 0.9500 . ? 
C18S C23S 1.388(4) . ? 
C18S C19S 1.405(4) . ? 
C19S C20S 1.391(4) . ? 
C20S C21S 1.394(4) . ? 
C20S H20S 0.9500 . ? 
C21S C22S 1.380(4) . ? 
C21S H21S 0.9500 . ? 
C22S C23S 1.395(4) . ? 
C22S H22S 0.9500 . ? 
C23S H23S 0.9500 . ? 
C24S C25S 1.519(5) . ? 
C24S H24C 0.9900 . ? 
C24S H24D 0.9900 . ? 
C25S H25D 0.9800 . ? 
C25S H25E 0.9800 . ? 
C25S H25F 0.9800 . ? 
O1A C8A 1.263(3) . ? 
O2A C17A 1.239(4) . ? 
O3A C19A 1.382(4) . ? 
O3A C24A 1.434(4) . ? 
O4A C26A 1.242(4) . ? 
N1A N2A 1.309(4) . ? 
N1A C5A 1.405(3) . ? 
N1A H1A1 0.8800 . ? 
N2A C7A 1.351(3) . ? 
N3A C17A 1.358(4) . ? 
N3A C18A 1.416(3) . ? 
N3A H3A1 0.8800 . ? 
N4A C26A 1.351(4) . ? 
N4A H4A1 0.8800 . ? 
N4A H4A2 0.8800 . ? 
C1A C6A 1.392(4) . ? 
C1A C2A 1.396(4) . ? 
C1A H1A2 0.9500 . ? 
C2A C3A 1.390(4) . ? 
C2A C26A 1.506(3) . ? 
C3A C4A 1.383(4) . ? 
C3A H3A2 0.9500 . ? 
C4A C5A 1.389(4) . ? 
C4A H4A3 0.9500 . ? 
C5A C6A 1.399(4) . ? 
C6A H6A 0.9500 . ? 
C7A C8A 1.455(3) . ? 
C7A C16A 1.459(3) . ? 
C8A C9A 1.472(4) . ? 
C9A C10A 1.354(4) . ? 
C9A C17A 1.516(4) . ? 
C10A C11A 1.436(3) . ? 
C10A H10A 0.9500 . ? 
C11A C12A 1.411(4) . ? 
C11A C16A 1.415(3) . ? 
C12A C13A 1.370(4) . ? 
C12A H12A 0.9500 . ? 
C13A C14A 1.403(4) . ? 
C13A H13A 0.9500 . ? 
C14A C15A 1.378(4) . ? 
C14A H14A 0.9500 . ? 
C15A C16A 1.403(4) . ? 
C15A H15A 0.9500 . ? 
C18A C23A 1.388(4) . ? 
C18A C19A 1.405(4) . ? 
C19A C20A 1.391(4) . ? 
C20A C21A 1.394(4) . ? 
C20A H20A 0.9500 . ? 
C21A C22A 1.380(4) . ? 
C21A H21A 0.9500 . ? 
C22A C23A 1.396(4) . ? 
C22A H22A 0.9500 . ? 
C23A H23A 0.9500 . ? 
C24A C25A 1.518(5) . ? 
C24A H24E 0.9900 . ? 
C24A H24F 0.9900 . ? 
C25A H25G 0.9800 . ? 
C25A H25H 0.9800 . ? 
C25A H25I 0.9800 . ? 
O31S C38S 1.264(3) . ? 
O32S C47S 1.238(4) . ? 
O33S C49S 1.382(4) . ? 
O33S C54S 1.433(4) . ? 
O34S C56S 1.239(4) . ? 
N31S N32S 1.313(4) . ? 
N31S C35S 1.409(3) . ? 
N31S H31S 0.8800 . ? 
N32S C37S 1.348(3) . ? 
N33S C47S 1.356(4) . ? 
N33S C48S 1.413(3) . ? 
N33S H33S 0.8800 . ? 
N34S C56S 1.351(4) . ? 
N34S H34C 0.8800 . ? 
N34S H34D 0.8800 . ? 
C31S C36S 1.390(4) . ? 
C31S C32S 1.398(4) . ? 
C31S H31B 0.9500 . ? 
C32S C33S 1.389(4) . ? 
C32S C56S 1.506(3) . ? 
C33S C34S 1.387(4) . ? 
C33S H33B 0.9500 . ? 
C34S C35S 1.386(4) . ? 
C34S H34S 0.9500 . ? 
C35S C36S 1.399(4) . ? 
C36S H36S 0.9500 . ? 
C37S C38S 1.455(3) . ? 
C37S C46S 1.457(3) . ? 
C38S C39S 1.471(3) . ? 
C39S C40S 1.352(3) . ? 
C39S C47S 1.516(4) . ? 
C40S C41S 1.438(3) . ? 
C40S H40S 0.9500 . ? 
C41S C42S 1.412(4) . ? 
C41S C46S 1.415(3) . ? 
C42S C43S 1.370(4) . ? 
C42S H42S 0.9500 . ? 
C43S C44S 1.403(4) . ? 
C43S H43S 0.9500 . ? 
C44S C45S 1.379(4) . ? 
C44S H44S 0.9500 . ? 
C45S C46S 1.402(4) . ? 
C45S H45S 0.9500 . ? 
C48S C53S 1.388(4) . ? 
C48S C49S 1.407(4) . ? 
C49S C50S 1.389(4) . ? 
C50S C51S 1.394(4) . ? 
C50S H50S 0.9500 . ? 
C51S C52S 1.381(4) . ? 
C51S H51S 0.9500 . ? 
C52S C53S 1.396(4) . ? 
C52S H52S 0.9500 . ? 
C53S H53S 0.9500 . ? 
C54S C55S 1.519(5) . ? 
C54S H54C 0.9900 . ? 
C54S H54D 0.9900 . ? 
C55S H55D 0.9800 . ? 
C55S H55E 0.9800 . ? 
C55S H55F 0.9800 . ? 
O31B C38B 1.266(4) . ? 
O32B C47B 1.237(4) . ? 
O33B C49B 1.381(4) . ? 
O33B C54B 1.434(4) . ? 
O34B C56B 1.240(4) . ? 
N31B N32B 1.312(4) . ? 
N31B C35B 1.409(3) . ? 
N31B H31C 0.8800 . ? 
N32B C37B 1.348(3) . ? 
N33B C47B 1.357(4) . ? 
N33B C48B 1.415(3) . ? 
N33B H33C 0.8800 . ? 
N34B C56B 1.350(4) . ? 
N34B H34E 0.8800 . ? 
N34B H34F 0.8800 . ? 
C31B C36B 1.392(4) . ? 
C31B C32B 1.397(4) . ? 
C31B H31D 0.9500 . ? 
C32B C33B 1.390(4) . ? 
C32B C56B 1.505(3) . ? 
C33B C34B 1.386(4) . ? 
C33B H33D 0.9500 . ? 
C34B C35B 1.387(4) . ? 
C34B H34G 0.9500 . ? 
C35B C36B 1.400(4) . ? 
C36B H36B 0.9500 . ? 
C37B C38B 1.456(3) . ? 
C37B C46B 1.458(3) . ? 
C38B C39B 1.472(3) . ? 
C39B C40B 1.352(3) . ? 
C39B C47B 1.515(3) . ? 
C40B C41B 1.439(4) . ? 
C40B H40B 0.9500 . ? 
C41B C42B 1.412(4) . ? 
C41B C46B 1.416(4) . ? 
C42B C43B 1.370(4) . ? 
C42B H42B 0.9500 . ? 
C43B C44B 1.402(4) . ? 
C43B H43B 0.9500 . ? 
C44B C45B 1.378(4) . ? 
C44B H44B 0.9500 . ? 
C45B C46B 1.402(3) . ? 
C45B H45B 0.9500 . ? 
C48B C53B 1.388(4) . ? 
C48B C49B 1.406(4) . ? 
C49B C50B 1.390(4) . ? 
C50B C51B 1.394(4) . ? 
C50B H50B 0.9500 . ? 
C51B C52B 1.380(4) . ? 
C51B H51B 0.9500 . ? 
C52B C53B 1.395(4) . ? 
C52B H52B 0.9500 . ? 
C53B H53B 0.9500 . ? 
C54B C55B 1.519(5) . ? 
C54B H54E 0.9900 . ? 
C54B H54F 0.9900 . ? 
C55B H55G 0.9800 . ? 
C55B H55H 0.9800 . ? 
C55B H55I 0.9800 . ? 
 
loop_ 
 _geom_angle_atom_site_label_1 
 _geom_angle_atom_site_label_2 
 _geom_angle_atom_site_label_3 
 _geom_angle 
 _geom_angle_site_symmetry_1 
 _geom_angle_site_symmetry_3 
 _geom_angle_publ_flag 
C19 O3 C24 118.59(17) . . ? 
N2 N1 C5 120.94(18) . . ? 
N2 N1 H1 119.5 . . ? 
C5 N1 H1 119.5 . . ? 
N1 N2 C7 119.16(17) . . ? 
C17 N3 C18 129.51(17) . . ? 
C17 N3 H3 115.2 . . ? 
C18 N3 H3 115.2 . . ? 
C26 N4 H4A 120.0 . . ? 
C26 N4 H4B 120.0 . . ? 
H4A N4 H4B 120.0 . . ? 
C6 C1 C2 120.70(18) . . ? 
C6 C1 H1A 119.7 . . ? 
C2 C1 H1A 119.7 . . ? 
C3 C2 C1 118.49(16) . . ? 
C3 C2 C26 117.37(17) . . ? 
C1 C2 C26 124.14(17) . . ? 
C4 C3 C2 121.75(18) . . ? 
C4 C3 H3A 119.1 . . ? 
C2 C3 H3A 119.1 . . ? 
C3 C4 C5 119.13(19) . . ? 
C3 C4 H4 120.4 . . ? 
C5 C4 H4 120.4 . . ? 
C4 C5 C6 120.47(17) . . ? 
C4 C5 N1 117.20(17) . . ? 
C6 C5 N1 122.33(17) . . ? 
C1 C6 C5 119.43(18) . . ? 
C1 C6 H6 120.3 . . ? 
C5 C6 H6 120.3 . . ? 
N2 C7 C8 123.37(17) . . ? 
N2 C7 C16 114.97(16) . . ? 
C8 C7 C16 121.57(16) . . ? 
O1 C8 C7 120.31(16) . . ? 
O1 C8 C9 122.49(17) . . ? 
C7 C8 C9 117.20(16) . . ? 
C10 C9 C8 119.39(17) . . ? 
C10 C9 C17 117.48(16) . . ? 
C8 C9 C17 123.11(16) . . ? 
C9 C10 C11 124.36(18) . . ? 
C9 C10 H10 117.8 . . ? 
C11 C10 H10 117.8 . . ? 
C12 C11 C16 119.32(16) . . ? 
C12 C11 C10 121.38(17) . . ? 
C16 C11 C10 119.30(17) . . ? 
C13 C12 C11 120.87(18) . . ? 
C13 C12 H12 119.6 . . ? 
C11 C12 H12 119.6 . . ? 
C12 C13 C14 119.46(19) . . ? 
C12 C13 H13 120.3 . . ? 
C14 C13 H13 120.3 . . ? 
C15 C14 C13 121.00(18) . . ? 
C15 C14 H14 119.5 . . ? 
C13 C14 H14 119.5 . . ? 
C14 C15 C16 120.28(17) . . ? 
C14 C15 H15 119.9 . . ? 
C16 C15 H15 119.9 . . ? 
C15 C16 C11 119.05(16) . . ? 
C15 C16 C7 122.84(16) . . ? 
C11 C16 C7 118.11(16) . . ? 
O2 C17 N3 124.23(18) . . ? 
O2 C17 C9 120.88(17) . . ? 
N3 C17 C9 114.88(16) . . ? 
C23 C18 C19 119.68(17) . . ? 
C23 C18 N3 125.57(17) . . ? 
C19 C18 N3 114.75(16) . . ? 
O3 C19 C20 125.49(18) . . ? 
O3 C19 C18 114.29(17) . . ? 
C20 C19 C18 120.22(18) . . ? 
C19 C20 C21 119.60(19) . . ? 
C19 C20 H20 120.2 . . ? 
C21 C20 H20 120.2 . . ? 
C22 C21 C20 120.14(19) . . ? 
C22 C21 H21 119.9 . . ? 
C20 C21 H21 119.9 . . ? 
C21 C22 C23 120.79(19) . . ? 
C21 C22 H22 119.6 . . ? 
C23 C22 H22 119.6 . . ? 
C18 C23 C22 119.55(19) . . ? 
C18 C23 H23 120.2 . . ? 
C22 C23 H23 120.2 . . ? 
O3 C24 C25 106.07(19) . . ? 
O3 C24 H24A 110.5 . . ? 
C25 C24 H24A 110.5 . . ? 
O3 C24 H24B 110.5 . . ? 
C25 C24 H24B 110.5 . . ? 
H24A C24 H24B 108.7 . . ? 
O4 C26 N4 121.79(18) . . ? 
O4 C26 C2 120.19(18) . . ? 
N4 C26 C2 117.99(18) . . ? 
C19M O3M C24M 118.75(17) . . ? 
N2M N1M C5M 120.95(17) . . ? 
N2M N1M H1M 119.5 . . ? 
C5M N1M H1M 119.5 . . ? 
N1M N2M C7M 119.10(17) . . ? 
C17M N3M C18M 129.49(17) . . ? 
C17M N3M H3M 115.3 . . ? 
C18M N3M H3M 115.3 . . ? 
C26M N4M H4M1 120.0 . . ? 
C26M N4M H4M2 120.0 . . ? 
H4M1 N4M H4M2 120.0 . . ? 
C6M C1M C2M 120.85(18) . . ? 
C6M C1M H1M1 119.6 . . ? 
C2M C1M H1M1 119.6 . . ? 
C3M C2M C1M 118.28(17) . . ? 
C3M C2M C26M 117.30(16) . . ? 
C1M C2M C26M 124.41(17) . . ? 
C4M C3M C2M 121.86(18) . . ? 
C4M C3M H3M1 119.1 . . ? 
C2M C3M H3M1 119.1 . . ? 
C3M C4M C5M 119.16(18) . . ? 
C3M C4M H4M 120.4 . . ? 
C5M C4M H4M 120.4 . . ? 
C4M C5M C6M 120.41(17) . . ? 
C4M C5M N1M 117.30(17) . . ? 
C6M C5M N1M 122.29(17) . . ? 
C1M C6M C5M 119.41(18) . . ? 
C1M C6M H6M 120.3 . . ? 
C5M C6M H6M 120.3 . . ? 
N2M C7M C8M 123.33(16) . . ? 
N2M C7M C16M 115.03(16) . . ? 
C8M C7M C16M 121.53(16) . . ? 
O1M C8M C7M 120.26(16) . . ? 
O1M C8M C9M 122.58(16) . . ? 
C7M C8M C9M 117.15(16) . . ? 
C10M C9M C8M 119.51(16) . . ? 
C10M C9M C17M 117.37(17) . . ? 
C8M C9M C17M 123.11(16) . . ? 
C9M C10M C11M 124.23(18) . . ? 
C9M C10M H10M 117.9 . . ? 
C11M C10M H10M 117.9 . . ? 
C12M C11M C16M 119.35(16) . . ? 
C12M C11M C10M 121.28(17) . . ? 
C16M C11M C10M 119.36(17) . . ? 
C13M C12M C11M 120.78(18) . . ? 
C13M C12M H12M 119.6 . . ? 
C11M C12M H12M 119.6 . . ? 
C12M C13M C14M 119.51(18) . . ? 
C12M C13M H13M 120.2 . . ? 
C14M C13M H13M 120.2 . . ? 
C15M C14M C13M 121.08(18) . . ? 
C15M C14M H14M 119.5 . . ? 
C13M C14M H14M 119.5 . . ? 
C14M C15M C16M 120.02(18) . . ? 
C14M C15M H15M 120.0 . . ? 
C16M C15M H15M 120.0 . . ? 
C15M C16M C11M 119.24(16) . . ? 
C15M C16M C7M 122.60(16) . . ? 
C11M C16M C7M 118.16(16) . . ? 
O2M C17M N3M 124.20(17) . . ? 
O2M C17M C9M 120.87(17) . . ? 
N3M C17M C9M 114.91(16) . . ? 
C23M C18M C19M 119.71(17) . . ? 
C23M C18M N3M 125.62(17) . . ? 
C19M C18M N3M 114.67(17) . . ? 
O3M C19M C20M 125.43(18) . . ? 
O3M C19M C18M 114.43(17) . . ? 
C20M C19M C18M 120.14(18) . . ? 
C19M C20M C21M 119.56(19) . . ? 
C19M C20M H20M 120.2 . . ? 
C21M C20M H20M 120.2 . . ? 
C22M C21M C20M 120.40(19) . . ? 
C22M C21M H21M 119.8 . . ? 
C20M C21M H21M 119.8 . . ? 
C21M C22M C23M 120.48(19) . . ? 
C21M C22M H22M 119.8 . . ? 
C23M C22M H22M 119.8 . . ? 
C18M C23M C22M 119.69(19) . . ? 
C18M C23M H23M 120.2 . . ? 
C22M C23M H23M 120.2 . . ? 
O3M C24M C25M 106.19(19) . . ? 
O3M C24M H24C 110.5 . . ? 
C25M C24M H24C 110.5 . . ? 
O3M C24M H24D 110.5 . . ? 
C25M C24M H24D 110.5 . . ? 
H24C C24M H24D 108.7 . . ? 
O4M C26M N4M 121.95(18) . . ? 
O4M C26M C2M 120.03(17) . . ? 
N4M C26M C2M 118.03(17) . . ? 
C49 O33 C54 117.84(18) . . ? 
N32 N31 C35 121.20(17) . . ? 
N32 N31 H31 119.4 . . ? 
C35 N31 H31 119.4 . . ? 
N31 N32 C37 118.89(16) . . ? 
C47 N33 C48 129.34(18) . . ? 
C47 N33 H33 115.3 . . ? 
C48 N33 H33 115.3 . . ? 
C56 N34 H34A 120.0 . . ? 
C56 N34 H34B 120.0 . . ? 
H34A N34 H34B 120.0 . . ? 
C36 C31 C32 120.68(18) . . ? 
C36 C31 H31A 119.7 . . ? 
C32 C31 H31A 119.7 . . ? 
C33 C32 C31 118.68(17) . . ? 
C33 C32 C56 117.32(17) . . ? 
C31 C32 C56 123.97(17) . . ? 
C34 C33 C32 121.54(18) . . ? 
C34 C33 H33A 119.2 . . ? 
C32 C33 H33A 119.2 . . ? 
C33 C34 C35 119.20(19) . . ? 
C33 C34 H34 120.4 . . ? 
C35 C34 H34 120.4 . . ? 
C34 C35 C36 120.63(17) . . ? 
C34 C35 N31 117.13(17) . . ? 
C36 C35 N31 122.23(17) . . ? 
C31 C36 C35 119.25(18) . . ? 
C31 C36 H36 120.4 . . ? 
C35 C36 H36 120.4 . . ? 
N32 C37 C38 123.56(16) . . ? 
N32 C37 C46 114.94(16) . . ? 
C38 C37 C46 121.48(15) . . ? 
O31 C38 C37 120.54(16) . . ? 
O31 C38 C39 122.12(17) . . ? 
C37 C38 C39 117.33(16) . . ? 
C40 C39 C38 119.38(17) . . ? 
C40 C39 C47 117.37(17) . . ? 
C38 C39 C47 123.24(17) . . ? 
C39 C40 C41 124.21(18) . . ? 
C39 C40 H40 117.9 . . ? 
C41 C40 H40 117.9 . . ? 
C42 C41 C46 119.29(16) . . ? 
C42 C41 C40 121.34(17) . . ? 
C46 C41 C40 119.33(17) . . ? 
C43 C42 C41 120.79(18) . . ? 
C43 C42 H42 119.6 . . ? 
C41 C42 H42 119.6 . . ? 
C42 C43 C44 119.53(19) . . ? 
C42 C43 H43 120.2 . . ? 
C44 C43 H43 120.2 . . ? 
C45 C44 C43 121.00(19) . . ? 
C45 C44 H44 119.5 . . ? 
C43 C44 H44 119.5 . . ? 
C44 C45 C46 120.15(18) . . ? 
C44 C45 H45 119.9 . . ? 
C46 C45 H45 119.9 . . ? 
C45 C46 C41 119.17(16) . . ? 
C45 C46 C37 122.86(16) . . ? 
C41 C46 C37 117.96(16) . . ? 
O32 C47 N33 124.33(19) . . ? 
O32 C47 C39 120.65(18) . . ? 
N33 C47 C39 115.01(17) . . ? 
C53 C48 C49 119.76(18) . . ? 
C53 C48 N33 125.43(18) . . ? 
C49 C48 N33 114.80(17) . . ? 
O33 C49 C50 124.93(19) . . ? 
O33 C49 C48 114.80(17) . . ? 
C50 C49 C48 120.27(19) . . ? 
C49 C50 C51 119.3(2) . . ? 
C49 C50 H50 120.4 . . ? 
C51 C50 H50 120.4 . . ? 
C52 C51 C50 120.4(2) . . ? 
C52 C51 H51 119.8 . . ? 
C50 C51 H51 119.8 . . ? 
C51 C52 C53 120.7(2) . . ? 
C51 C52 H52 119.7 . . ? 
C53 C52 H52 119.7 . . ? 
C48 C53 C52 119.6(2) . . ? 
C48 C53 H53 120.2 . . ? 
C52 C53 H53 120.2 . . ? 
O33 C54 C55 106.5(2) . . ? 
O33 C54 H54A 110.4 . . ? 
C55 C54 H54A 110.4 . . ? 
O33 C54 H54B 110.4 . . ? 
C55 C54 H54B 110.4 . . ? 
H54A C54 H54B 108.6 . . ? 
O34 C56 N34 122.28(18) . . ? 
O34 C56 C32 119.95(18) . . ? 
N34 C56 C32 117.77(18) . . ? 
C49M O33M C54M 117.90(18) . . ? 
N32M N31M C35M 121.19(16) . . ? 
N32M N31M H31M 119.4 . . ? 
C35M N31M H31M 119.4 . . ? 
N31M N32M C37M 118.81(16) . . ? 
C47M N33M C48M 129.36(18) . . ? 
C47M N33M H33M 115.3 . . ? 
C48M N33M H33M 115.3 . . ? 
C56M N34M H34C 120.0 . . ? 
C56M N34M H34D 120.0 . . ? 
H34C N34M H34D 120.0 . . ? 
C36M C31M C32M 120.63(18) . . ? 
C36M C31M H31B 119.7 . . ? 
C32M C31M H31B 119.7 . . ? 
C33M C32M C31M 118.68(17) . . ? 
C33M C32M C56M 117.14(17) . . ? 
C31M C32M C56M 124.14(17) . . ? 
C34M C33M C32M 121.57(18) . . ? 
C34M C33M H33B 119.2 . . ? 
C32M C33M H33B 119.2 . . ? 
C33M C34M C35M 119.19(18) . . ? 
C33M C34M H34M 120.4 . . ? 
C35M C34M H34M 120.4 . . ? 
C34M C35M C36M 120.61(17) . . ? 
C34M C35M N31M 117.22(17) . . ? 
C36M C35M N31M 122.16(17) . . ? 
C31M C36M C35M 119.29(18) . . ? 
C31M C36M H36M 120.4 . . ? 
C35M C36M H36M 120.4 . . ? 
N32M C37M C38M 123.51(16) . . ? 
N32M C37M C46M 115.03(15) . . ? 
C38M C37M C46M 121.40(16) . . ? 
O31M C38M C37M 120.47(17) . . ? 
O31M C38M C39M 122.17(16) . . ? 
C37M C38M C39M 117.36(16) . . ? 
C40M C39M C38M 119.41(16) . . ? 
C40M C39M C47M 117.25(17) . . ? 
C38M C39M C47M 123.32(16) . . ? 
C39M C40M C41M 124.05(18) . . ? 
C39M C40M H40M 118.0 . . ? 
C41M C40M H40M 118.0 . . ? 
C42M C41M C46M 119.30(16) . . ? 
C42M C41M C40M 121.28(17) . . ? 
C46M C41M C40M 119.38(17) . . ? 
C43M C42M C41M 120.73(18) . . ? 
C43M C42M H42M 119.6 . . ? 
C41M C42M H42M 119.6 . . ? 
C42M C43M C44M 119.62(19) . . ? 
C42M C43M H43M 120.2 . . ? 
C44M C43M H43M 120.2 . . ? 
C45M C44M C43M 121.07(18) . . ? 
C45M C44M H44M 119.5 . . ? 
C43M C44M H44M 119.5 . . ? 
C44M C45M C46M 119.97(18) . . ? 
C44M C45M H45M 120.0 . . ? 
C46M C45M H45M 120.0 . . ? 
C45M C46M C41M 119.25(16) . . ? 
C45M C46M C37M 122.66(16) . . ? 
C41M C46M C37M 118.09(16) . . ? 
O32M C47M N33M 124.49(19) . . ? 
O32M C47M C39M 120.55(18) . . ? 
N33M C47M C39M 114.96(17) . . ? 
C53M C48M C49M 119.85(18) . . ? 
C53M C48M N33M 125.25(18) . . ? 
C49M C48M N33M 114.88(17) . . ? 
O33M C49M C50M 124.79(19) . . ? 
O33M C49M C48M 114.91(17) . . ? 
C50M C49M C48M 120.30(19) . . ? 
C49M C50M C51M 119.3(2) . . ? 
C49M C50M H50M 120.3 . . ? 
C51M C50M H50M 120.3 . . ? 
C52M C51M C50M 120.4(2) . . ? 
C52M C51M H51M 119.8 . . ? 
C50M C51M H51M 119.8 . . ? 
C51M C52M C53M 120.5(2) . . ? 
C51M C52M H52M 119.8 . . ? 
C53M C52M H52M 119.8 . . ? 
C48M C53M C52M 119.6(2) . . ? 
C48M C53M H53M 120.2 . . ? 
C52M C53M H53M 120.2 . . ? 
O33M C54M C55M 106.6(2) . . ? 
O33M C54M H54C 110.4 . . ? 
C55M C54M H54C 110.4 . . ? 
O33M C54M H54D 110.4 . . ? 
C55M C54M H54D 110.4 . . ? 
H54C C54M H54D 108.6 . . ? 
O34M C56M N34M 122.17(18) . . ? 
O34M C56M C32M 119.93(17) . . ? 
N34M C56M C32M 117.89(17) . . ? 
C19S O3S C24S 117.9(4) . . ? 
N2S N1S C5S 121.6(4) . . ? 
N2S N1S H1S 119.2 . . ? 
C5S N1S H1S 119.2 . . ? 
N1S N2S C7S 119.0(4) . . ? 
C17S N3S C18S 129.6(4) . . ? 
C17S N3S H3S 115.2 . . ? 
C18S N3S H3S 115.2 . . ? 
C26S N4S H4S1 120.0 . . ? 
C26S N4S H4S2 120.0 . . ? 
H4S1 N4S H4S2 120.0 . . ? 
C6S C1S C2S 120.8(3) . . ? 
C6S C1S H1S1 119.6 . . ? 
C2S C1S H1S1 119.6 . . ? 
C3S C2S C1S 118.2(3) . . ? 
C3S C2S C26S 117.4(3) . . ? 
C1S C2S C26S 124.3(3) . . ? 
C4S C3S C2S 121.5(4) . . ? 
C4S C3S H3S1 119.2 . . ? 
C2S C3S H3S1 119.2 . . ? 
C3S C4S C5S 119.1(3) . . ? 
C3S C4S H4S 120.4 . . ? 
C5S C4S H4S 120.4 . . ? 
C4S C5S C6S 120.3(3) . . ? 
C4S C5S N1S 117.3(3) . . ? 
C6S C5S N1S 122.2(3) . . ? 
C1S C6S C5S 119.3(3) . . ? 
C1S C6S H6S 120.4 . . ? 
C5S C6S H6S 120.4 . . ? 
N2S C7S C8S 123.6(3) . . ? 
N2S C7S C16S 114.8(3) . . ? 
C8S C7S C16S 121.6(2) . . ? 
O1S C8S C7S 120.6(3) . . ? 
O1S C8S C9S 122.0(3) . . ? 
C7S C8S C9S 117.2(3) . . ? 
C10S C9S C8S 119.4(3) . . ? 
C10S C9S C17S 117.5(3) . . ? 
C8S C9S C17S 122.7(3) . . ? 
C9S C10S C11S 124.3(3) . . ? 
C9S C10S H10S 117.9 . . ? 
C11S C10S H10S 117.9 . . ? 
C12S C11S C16S 119.2(3) . . ? 
C12S C11S C10S 121.2(4) . . ? 
C16S C11S C10S 119.4(3) . . ? 
C13S C12S C11S 120.8(3) . . ? 
C13S C12S H12S 119.6 . . ? 
C11S C12S H12S 119.6 . . ? 
C12S C13S C14S 119.4(3) . . ? 
C12S C13S H13S 120.3 . . ? 
C14S C13S H13S 120.3 . . ? 
C15S C14S C13S 120.9(3) . . ? 
C15S C14S H14S 119.5 . . ? 
C13S C14S H14S 119.5 . . ? 
C14S C15S C16S 120.1(3) . . ? 
C14S C15S H15S 120.0 . . ? 
C16S C15S H15S 120.0 . . ? 
C15S C16S C11S 119.1(3) . . ? 
C15S C16S C7S 122.4(3) . . ? 
C11S C16S C7S 118.0(2) . . ? 
O2S C17S N3S 124.4(4) . . ? 
O2S C17S C9S 120.5(4) . . ? 
N3S C17S C9S 114.6(4) . . ? 
C23S C18S C19S 119.7(3) . . ? 
C23S C18S N3S 125.3(3) . . ? 
C19S C18S N3S 115.0(3) . . ? 
O3S C19S C20S 124.9(3) . . ? 
O3S C19S C18S 114.8(3) . . ? 
C20S C19S C18S 120.3(3) . . ? 
C19S C20S C21S 119.4(3) . . ? 
C19S C20S H20S 120.3 . . ? 
C21S C20S H20S 120.3 . . ? 
C22S C21S C20S 120.3(3) . . ? 
C22S C21S H21S 119.8 . . ? 
C20S C21S H21S 119.8 . . ? 
C21S C22S C23S 120.7(3) . . ? 
C21S C22S H22S 119.7 . . ? 
C23S C22S H22S 119.7 . . ? 
C18S C23S C22S 119.5(3) . . ? 
C18S C23S H23S 120.2 . . ? 
C22S C23S H23S 120.2 . . ? 
O3S C24S C25S 106.2(4) . . ? 
O3S C24S H24C 110.5 . . ? 
C25S C24S H24C 110.5 . . ? 
O3S C24S H24D 110.5 . . ? 
C25S C24S H24D 110.5 . . ? 
H24C C24S H24D 108.7 . . ? 
C24S C25S H25D 109.5 . . ? 
C24S C25S H25E 109.5 . . ? 
H25D C25S H25E 109.5 . . ? 
C24S C25S H25F 109.5 . . ? 
H25D C25S H25F 109.5 . . ? 
H25E C25S H25F 109.5 . . ? 
O4S C26S N4S 121.9(4) . . ? 
O4S C26S C2S 120.1(3) . . ? 
N4S C26S C2S 117.9(3) . . ? 
C19A O3A C24A 117.8(4) . . ? 
N2A N1A C5A 121.9(4) . . ? 
N2A N1A H1A1 119.1 . . ? 
C5A N1A H1A1 119.1 . . ? 
N1A N2A C7A 118.8(4) . . ? 
C17A N3A C18A 129.3(4) . . ? 
C17A N3A H3A1 115.3 . . ? 
C18A N3A H3A1 115.3 . . ? 
C26A N4A H4A1 120.0 . . ? 
C26A N4A H4A2 120.0 . . ? 
H4A1 N4A H4A2 120.0 . . ? 
C6A C1A C2A 120.8(3) . . ? 
C6A C1A H1A2 119.6 . . ? 
C2A C1A H1A2 119.6 . . ? 
C3A C2A C1A 118.3(3) . . ? 
C3A C2A C26A 117.3(3) . . ? 
C1A C2A C26A 124.4(3) . . ? 
C4A C3A C2A 121.7(3) . . ? 
C4A C3A H3A2 119.1 . . ? 
C2A C3A H3A2 119.1 . . ? 
C3A C4A C5A 119.2(3) . . ? 
C3A C4A H4A3 120.4 . . ? 
C5A C4A H4A3 120.4 . . ? 
C4A C5A C6A 120.3(3) . . ? 
C4A C5A N1A 117.3(3) . . ? 
C6A C5A N1A 122.5(3) . . ? 
C1A C6A C5A 119.3(3) . . ? 
C1A C6A H6A 120.3 . . ? 
C5A C6A H6A 120.4 . . ? 
N2A C7A C8A 123.4(3) . . ? 
N2A C7A C16A 114.8(3) . . ? 
C8A C7A C16A 121.6(3) . . ? 
O1A C8A C7A 120.5(3) . . ? 
O1A C8A C9A 122.2(3) . . ? 
C7A C8A C9A 117.1(3) . . ? 
C10A C9A C8A 119.2(3) . . ? 
C10A C9A C17A 117.2(3) . . ? 
C8A C9A C17A 122.9(3) . . ? 
C9A C10A C11A 124.3(3) . . ? 
C9A C10A H10A 117.9 . . ? 
C11A C10A H10A 117.9 . . ? 
C12A C11A C16A 119.3(3) . . ? 
C12A C11A C10A 121.2(3) . . ? 
C16A C11A C10A 119.4(3) . . ? 
C13A C12A C11A 120.8(3) . . ? 
C13A C12A H12A 119.6 . . ? 
C11A C12A H12A 119.6 . . ? 
C12A C13A C14A 119.4(4) . . ? 
C12A C13A H13A 120.3 . . ? 
C14A C13A H13A 120.3 . . ? 
C15A C14A C13A 120.9(4) . . ? 
C15A C14A H14A 119.6 . . ? 
C13A C14A H14A 119.6 . . ? 
C14A C15A C16A 120.1(3) . . ? 
C14A C15A H15A 119.9 . . ? 
C16A C15A H15A 119.9 . . ? 
C15A C16A C11A 119.1(3) . . ? 
C15A C16A C7A 122.3(4) . . ? 
C11A C16A C7A 118.0(3) . . ? 
O2A C17A N3A 124.1(4) . . ? 
O2A C17A C9A 120.2(5) . . ? 
N3A C17A C9A 114.8(4) . . ? 
C23A C18A C19A 119.7(3) . . ? 
C23A C18A N3A 125.2(3) . . ? 
C19A C18A N3A 115.0(3) . . ? 
O3A C19A C20A 124.7(3) . . ? 
O3A C19A C18A 114.7(3) . . ? 
C20A C19A C18A 120.2(3) . . ? 
C19A C20A C21A 119.4(3) . . ? 
C19A C20A H20A 120.3 . . ? 
C21A C20A H20A 120.3 . . ? 
C22A C21A C20A 120.2(3) . . ? 
C22A C21A H21A 119.9 . . ? 
C20A C21A H21A 119.9 . . ? 
C21A C22A C23A 120.6(3) . . ? 
C21A C22A H22A 119.7 . . ? 
C23A C22A H22A 119.7 . . ? 
C18A C23A C22A 119.5(3) . . ? 
C18A C23A H23A 120.2 . . ? 
C22A C23A H23A 120.2 . . ? 
O3A C24A C25A 106.2(4) . . ? 
O3A C24A H24E 110.5 . . ? 
C25A C24A H24E 110.5 . . ? 
O3A C24A H24F 110.5 . . ? 
C25A C24A H24F 110.5 . . ? 
H24E C24A H24F 108.7 . . ? 
C24A C25A H25G 109.5 . . ? 
C24A C25A H25H 109.5 . . ? 
H25G C25A H25H 109.5 . . ? 
C24A C25A H25I 109.5 . . ? 
H25G C25A H25I 109.5 . . ? 
H25H C25A H25I 109.5 . . ? 
O4A C26A N4A 121.8(4) . . ? 
O4A C26A C2A 119.9(4) . . ? 
N4A C26A C2A 117.8(4) . . ? 
C49S O33S C54S 117.9(5) . . ? 
N32S N31S C35S 120.8(4) . . ? 
N32S N31S H31S 119.6 . . ? 
C35S N31S H31S 119.6 . . ? 
N31S N32S C37S 119.0(4) . . ? 
C47S N33S C48S 129.9(4) . . ? 
C47S N33S H33S 115.0 . . ? 
C48S N33S H33S 115.0 . . ? 
C56S N34S H34C 120.0 . . ? 
C56S N34S H34D 120.0 . . ? 
H34C N34S H34D 120.0 . . ? 
C36S C31S C32S 120.7(3) . . ? 
C36S C31S H31B 119.6 . . ? 
C32S C31S H31B 119.6 . . ? 
C33S C32S C31S 118.3(3) . . ? 
C33S C32S C56S 117.6(3) . . ? 
C31S C32S C56S 123.8(3) . . ? 
C34S C33S C32S 121.4(4) . . ? 
C34S C33S H33B 119.3 . . ? 
C32S C33S H33B 119.3 . . ? 
C35S C34S C33S 119.0(3) . . ? 
C35S C34S H34S 120.5 . . ? 
C33S C34S H34S 120.5 . . ? 
C34S C35S C36S 120.4(3) . . ? 
C34S C35S N31S 117.4(3) . . ? 
C36S C35S N31S 121.9(3) . . ? 
C31S C36S C35S 119.3(3) . . ? 
C31S C36S H36S 120.3 . . ? 
C35S C36S H36S 120.3 . . ? 
N32S C37S C38S 123.5(3) . . ? 
N32S C37S C46S 115.0(3) . . ? 
C38S C37S C46S 121.5(3) . . ? 
O31S C38S C37S 120.4(3) . . ? 
O31S C38S C39S 122.3(3) . . ? 
C37S C38S C39S 117.2(3) . . ? 
C40S C39S C38S 119.6(3) . . ? 
C40S C39S C47S 117.5(3) . . ? 
C38S C39S C47S 122.8(3) . . ? 
C39S C40S C41S 124.2(3) . . ? 
C39S C40S H40S 117.9 . . ? 
C41S C40S H40S 117.9 . . ? 
C42S C41S C46S 119.0(3) . . ? 
C42S C41S C40S 121.0(4) . . ? 
C46S C41S C40S 119.2(3) . . ? 
C43S C42S C41S 120.8(3) . . ? 
C43S C42S H42S 119.6 . . ? 
C41S C42S H42S 119.6 . . ? 
C42S C43S C44S 119.4(3) . . ? 
C42S C43S H43S 120.3 . . ? 
C44S C43S H43S 120.3 . . ? 
C45S C44S C43S 120.9(3) . . ? 
C45S C44S H44S 119.6 . . ? 
C43S C44S H44S 119.6 . . ? 
C44S C45S C46S 120.0(3) . . ? 
C44S C45S H45S 120.0 . . ? 
C46S C45S H45S 120.0 . . ? 
C45S C46S C41S 119.1(3) . . ? 
C45S C46S C37S 122.7(3) . . ? 
C41S C46S C37S 118.1(3) . . ? 
O32S C47S N33S 124.4(4) . . ? 
O32S C47S C39S 120.5(4) . . ? 
N33S C47S C39S 114.6(3) . . ? 
C53S C48S C49S 119.6(3) . . ? 
C53S C48S N33S 125.5(3) . . ? 
C49S C48S N33S 114.7(3) . . ? 
O33S C49S C50S 125.0(4) . . ? 
O33S C49S C48S 114.4(4) . . ? 
C50S C49S C48S 120.2(3) . . ? 
C49S C50S C51S 119.5(3) . . ? 
C49S C50S H50S 120.3 . . ? 
C51S C50S H50S 120.3 . . ? 
C52S C51S C50S 120.2(3) . . ? 
C52S C51S H51S 119.9 . . ? 
C50S C51S H51S 119.9 . . ? 
C51S C52S C53S 120.5(4) . . ? 
C51S C52S H52S 119.8 . . ? 
C53S C52S H52S 119.8 . . ? 
C48S C53S C52S 119.5(3) . . ? 
C48S C53S H53S 120.2 . . ? 
C52S C53S H53S 120.2 . . ? 
O33S C54S C55S 106.2(4) . . ? 
O33S C54S H54C 110.5 . . ? 
C55S C54S H54C 110.5 . . ? 
O33S C54S H54D 110.5 . . ? 
C55S C54S H54D 110.5 . . ? 
H54C C54S H54D 108.7 . . ? 
C54S C55S H55D 109.5 . . ? 
C54S C55S H55E 109.5 . . ? 
H55D C55S H55E 109.5 . . ? 
C54S C55S H55F 109.5 . . ? 
H55D C55S H55F 109.5 . . ? 
H55E C55S H55F 109.5 . . ? 
O34S C56S N34S 121.9(4) . . ? 
O34S C56S C32S 120.4(3) . . ? 
N34S C56S C32S 117.7(3) . . ? 
C49B O33B C54B 117.9(5) . . ? 
N32B N31B C35B 120.9(4) . . ? 
N32B N31B H31C 119.5 . . ? 
C35B N31B H31C 119.5 . . ? 
N31B N32B C37B 119.0(4) . . ? 
C47B N33B C48B 129.6(4) . . ? 
C47B N33B H33C 115.2 . . ? 
C48B N33B H33C 115.2 . . ? 
C56B N34B H34E 120.0 . . ? 
C56B N34B H34F 120.0 . . ? 
H34E N34B H34F 120.0 . . ? 
C36B C31B C32B 120.5(3) . . ? 
C36B C31B H31D 119.7 . . ? 
C32B C31B H31D 119.7 . . ? 
C33B C32B C31B 118.3(3) . . ? 
C33B C32B C56B 117.4(3) . . ? 
C31B C32B C56B 124.1(3) . . ? 
C34B C33B C32B 121.5(3) . . ? 
C34B C33B H33D 119.2 . . ? 
C32B C33B H33D 119.2 . . ? 
C33B C34B C35B 119.0(3) . . ? 
C33B C34B H34G 120.5 . . ? 
C35B C34B H34G 120.5 . . ? 
C34B C35B C36B 120.3(3) . . ? 
C34B C35B N31B 117.3(3) . . ? 
C36B C35B N31B 122.0(3) . . ? 
C31B C36B C35B 119.1(3) . . ? 
C31B C36B H36B 120.5 . . ? 
C35B C36B H36B 120.5 . . ? 
N32B C37B C38B 123.5(3) . . ? 
N32B C37B C46B 115.0(3) . . ? 
C38B C37B C46B 121.5(3) . . ? 
O31B C38B C37B 120.2(4) . . ? 
O31B C38B C39B 122.0(4) . . ? 
C37B C38B C39B 117.1(3) . . ? 
C40B C39B C38B 119.6(3) . . ? 
C40B C39B C47B 117.5(3) . . ? 
C38B C39B C47B 122.9(3) . . ? 
C39B C40B C41B 124.1(3) . . ? 
C39B C40B H40B 118.0 . . ? 
C41B C40B H40B 118.0 . . ? 
C42B C41B C46B 119.0(3) . . ? 
C42B C41B C40B 120.9(4) . . ? 
C46B C41B C40B 118.9(3) . . ? 
C43B C42B C41B 120.8(3) . . ? 
C43B C42B H42B 119.6 . . ? 
C41B C42B H42B 119.6 . . ? 
C42B C43B C44B 119.5(3) . . ? 
C42B C43B H43B 120.3 . . ? 
C44B C43B H43B 120.3 . . ? 
C45B C44B C43B 121.0(3) . . ? 
C45B C44B H44B 119.5 . . ? 
C43B C44B H44B 119.5 . . ? 
C44B C45B C46B 120.1(3) . . ? 
C44B C45B H45B 119.9 . . ? 
C46B C45B H45B 119.9 . . ? 
C45B C46B C41B 119.1(3) . . ? 
C45B C46B C37B 122.6(3) . . ? 
C41B C46B C37B 117.9(3) . . ? 
O32B C47B N33B 124.5(4) . . ? 
O32B C47B C39B 120.6(3) . . ? 
N33B C47B C39B 114.7(3) . . ? 
C53B C48B C49B 119.6(3) . . ? 
C53B C48B N33B 125.2(3) . . ? 
C49B C48B N33B 114.9(3) . . ? 
O33B C49B C50B 125.0(4) . . ? 
O33B C49B C48B 114.7(3) . . ? 
C50B C49B C48B 120.3(3) . . ? 
C49B C50B C51B 119.4(3) . . ? 
C49B C50B H50B 120.3 . . ? 
C51B C50B H50B 120.3 . . ? 
C52B C51B C50B 120.3(3) . . ? 
C52B C51B H51B 119.9 . . ? 
C50B C51B H51B 119.9 . . ? 
C51B C52B C53B 120.6(3) . . ? 
C51B C52B H52B 119.7 . . ? 
C53B C52B H52B 119.7 . . ? 
C48B C53B C52B 119.5(3) . . ? 
C48B C53B H53B 120.3 . . ? 
C52B C53B H53B 120.3 . . ? 
O33B C54B C55B 106.2(4) . . ? 
O33B C54B H54E 110.5 . . ? 
C55B C54B H54E 110.5 . . ? 
O33B C54B H54F 110.5 . . ? 
C55B C54B H54F 110.5 . . ? 
H54E C54B H54F 108.7 . . ? 
C54B C55B H55G 109.5 . . ? 
C54B C55B H55H 109.5 . . ? 
H55G C55B H55H 109.5 . . ? 
C54B C55B H55I 109.5 . . ? 
H55G C55B H55I 109.5 . . ? 
H55H C55B H55I 109.5 . . ? 
O34B C56B N34B 121.9(4) . . ? 
O34B C56B C32B 120.1(4) . . ? 
N34B C56B C32B 117.8(3) . . ? 
 
_diffrn_measured_fraction_theta_max    0.905 
_diffrn_reflns_theta_full              22.58 
_diffrn_measured_fraction_theta_full   0.905 
_refine_diff_density_max    0.493 
_refine_diff_density_min   -0.364 
_refine_diff_density_rms    0.076 
